K1 Nb1 O3
1.0
   4.0286650000000002    0.0000000000000000    0.0000000000000002
   0.0000000000000006    4.0286650000000002    0.0000000000000002
   0.0000000000000000    0.0000000000000000    4.2187400000000004
K Nb O
1 1 3
direct
   0.5000000000000000    0.5000000000000000    0.5000000000000000 K
   0.0000000000000000    0.0000000000000000    0.0000000000000000 Nb
   0.5000000000000000    0.0000000000000000    0.0000000000000000 O
   0.0000000000000000    0.5000000000000000    0.0000000000000000 O
   0.0000000000000000    0.0000000000000000    0.5000000000000000 O
