Combined k-points
184
Reciprocal
0.0 0.0 0.0 1 None
0.14285714285714285 0.0 0.0 8 None
0.2857142857142857 0.0 0.0 8 None
0.42857142857142855 0.0 0.0 8 None
0.14285714285714285 0.14285714285714285 0.0 6 None
0.2857142857142857 0.14285714285714285 0.0 24 None
0.42857142857142855 0.14285714285714285 0.0 24 None
-0.42857142857142855 0.14285714285714285 0.0 24 None
-0.2857142857142857 0.14285714285714285 0.0 24 None
-0.14285714285714285 0.14285714285714285 0.0 12 None
0.2857142857142857 0.2857142857142857 0.0 6 None
0.42857142857142855 0.2857142857142857 0.0 24 None
-0.42857142857142855 0.2857142857142857 0.0 24 None
-0.2857142857142857 0.2857142857142857 0.0 12 None
0.42857142857142855 0.42857142857142855 0.0 6 None
-0.42857142857142855 0.42857142857142855 0.0 12 None
0.42857142857142855 0.2857142857142857 0.14285714285714285 24 None
-0.42857142857142855 0.2857142857142857 0.14285714285714285 48 None
-0.42857142857142855 0.42857142857142855 0.14285714285714285 24 None
-0.2857142857142857 0.42857142857142855 0.14285714285714285 24 None
0.0 0.0 0.0 0 \Gamma
0.021739130434782608 0.0 0.021739130434782608 0 None
0.043478260869565216 0.0 0.043478260869565216 0 None
0.06521739130434782 0.0 0.06521739130434782 0 None
0.08695652173913043 0.0 0.08695652173913043 0 None
0.10869565217391304 0.0 0.10869565217391304 0 None
0.13043478260869565 0.0 0.13043478260869565 0 None
0.15217391304347827 0.0 0.15217391304347827 0 None
0.17391304347826086 0.0 0.17391304347826086 0 None
0.19565217391304351 0.0 0.19565217391304351 0 None
0.21739130434782608 0.0 0.21739130434782608 0 None
0.2391304347826087 0.0 0.2391304347826087 0 None
0.2608695652173913 0.0 0.2608695652173913 0 None
0.2826086956521739 0.0 0.2826086956521739 0 None
0.30434782608695654 0.0 0.30434782608695654 0 None
0.32608695652173914 0.0 0.32608695652173914 0 None
0.34782608695652173 0.0 0.34782608695652173 0 None
0.3695652173913043 0.0 0.3695652173913043 0 None
0.39130434782608703 0.0 0.39130434782608703 0 None
0.41304347826086957 0.0 0.41304347826086957 0 None
0.43478260869565216 0.0 0.43478260869565216 0 None
0.4565217391304348 0.0 0.4565217391304348 0 None
0.4782608695652174 0.0 0.4782608695652174 0 None
0.5 0.0 0.5 0 X
0.5 0.0 0.5 0 X
0.5 0.020833333333333332 0.5208333333333334 0 None
0.5 0.041666666666666664 0.5416666666666667 0 None
0.5 0.0625 0.5625 0 None
0.5 0.08333333333333333 0.5833333333333334 0 None
0.5 0.10416666666666667 0.6041666666666667 0 None
0.5 0.125 0.625 0 None
0.5 0.14583333333333337 0.6458333333333334 0 None
0.5 0.16666666666666666 0.6666666666666666 0 None
0.5 0.18750000000000003 0.6875 0 None
0.5 0.20833333333333334 0.7083333333333334 0 None
0.5 0.22916666666666669 0.7291666666666667 0 None
0.5 0.25 0.75 0 W
0.5 0.25 0.75 0 W
0.48611111111111116 0.2638888888888889 0.75 0 None
0.47222222222222227 0.2777777777777778 0.75 0 None
0.45833333333333337 0.2916666666666667 0.75 0 None
0.44444444444444453 0.3055555555555556 0.7500000000000001 0 None
0.43055555555555564 0.3194444444444445 0.7500000000000001 0 None
0.41666666666666674 0.33333333333333337 0.7500000000000001 0 None
0.40277777777777785 0.34722222222222227 0.7500000000000001 0 None
0.38888888888888895 0.36111111111111116 0.7500000000000001 0 None
0.37500000000000006 0.37500000000000006 0.7500000000000001 0 K
0.37500000000000006 0.37500000000000006 0.7500000000000001 0 K
0.36000000000000004 0.36000000000000004 0.7200000000000001 0 None
0.34500000000000003 0.34500000000000003 0.6900000000000001 0 None
0.33000000000000007 0.33000000000000007 0.6600000000000001 0 None
0.31500000000000006 0.31500000000000006 0.6300000000000001 0 None
0.30000000000000004 0.30000000000000004 0.6000000000000001 0 None
0.2850000000000001 0.28500000000000003 0.5700000000000001 0 None
0.2700000000000001 0.27 0.54 0 None
0.25500000000000006 0.255 0.51 0 None
0.24000000000000005 0.24000000000000002 0.48000000000000004 0 None
0.22500000000000003 0.225 0.45 0 None
0.21000000000000005 0.21000000000000002 0.42000000000000004 0 None
0.19500000000000006 0.19500000000000003 0.39000000000000007 0 None
0.18000000000000002 0.18000000000000002 0.36000000000000004 0 None
0.165 0.165 0.33 0 None
0.15000000000000005 0.15000000000000002 0.30000000000000004 0 None
0.13500000000000004 0.135 0.27 0 None
0.12000000000000002 0.12000000000000001 0.24000000000000002 0 None
0.10500000000000005 0.10500000000000004 0.21000000000000008 0 None
0.09 0.08999999999999998 0.17999999999999997 0 None
0.07499999999999998 0.07499999999999997 0.14999999999999994 0 None
0.06000000000000001 0.060000000000000005 0.12000000000000001 0 None
0.045 0.04499999999999999 0.08999999999999998 0 None
0.02999999999999998 0.029999999999999978 0.059999999999999956 0 None
0.015000000000000015 0.015000000000000013 0.030000000000000027 0 None
0.0 0.0 0.0 0 \Gamma
0.0 0.0 0.0 0 \Gamma
0.025000000000000005 0.025 0.025000000000000005 0 None
0.05000000000000001 0.05 0.05000000000000001 0 None
0.07500000000000001 0.075 0.07500000000000001 0 None
0.10000000000000002 0.1 0.10000000000000002 0 None
0.12500000000000003 0.125 0.12500000000000003 0 None
0.15000000000000002 0.15 0.15000000000000002 0 None
0.17500000000000002 0.175 0.17500000000000002 0 None
0.20000000000000004 0.2 0.20000000000000004 0 None
0.22500000000000003 0.225 0.225 0 None
0.25000000000000006 0.25 0.25000000000000006 0 None
0.275 0.275 0.275 0 None
0.30000000000000004 0.3 0.30000000000000004 0 None
0.32500000000000007 0.325 0.32500000000000007 0 None
0.35000000000000003 0.35 0.35000000000000003 0 None
0.37500000000000006 0.375 0.37500000000000006 0 None
0.4000000000000001 0.4 0.4000000000000001 0 None
0.42500000000000004 0.42500000000000004 0.42500000000000004 0 None
0.45000000000000007 0.45 0.45 0 None
0.47500000000000003 0.475 0.475 0 None
0.5000000000000001 0.5 0.5000000000000001 0 L
0.5000000000000001 0.5 0.5000000000000001 0 L
0.5083333333333334 0.48333333333333334 0.5083333333333334 0 None
0.5166666666666667 0.46666666666666673 0.5166666666666668 0 None
0.525 0.45 0.5250000000000001 0 None
0.5333333333333334 0.43333333333333335 0.5333333333333334 0 None
0.5416666666666667 0.4166666666666667 0.5416666666666667 0 None
0.55 0.4 0.5500000000000002 0 None
0.5583333333333333 0.3833333333333333 0.5583333333333335 0 None
0.5666666666666667 0.36666666666666664 0.5666666666666668 0 None
0.5750000000000001 0.35 0.5750000000000001 0 None
0.5833333333333334 0.3333333333333333 0.5833333333333334 0 None
0.5916666666666667 0.31666666666666665 0.5916666666666666 0 None
0.6 0.29999999999999993 0.6 0 None
0.6083333333333334 0.2833333333333333 0.6083333333333334 0 None
0.6166666666666668 0.2666666666666666 0.6166666666666667 0 None
0.625 0.24999999999999997 0.625 0 U
0.625 0.24999999999999997 0.625 0 U
0.611111111111111 0.24999999999999997 0.6388888888888888 0 None
0.5972222222222222 0.25 0.6527777777777778 0 None
0.5833333333333334 0.24999999999999997 0.6666666666666666 0 None
0.5694444444444444 0.24999999999999997 0.6805555555555556 0 None
0.5555555555555556 0.25 0.6944444444444444 0 None
0.5416666666666666 0.25 0.7083333333333334 0 None
0.5277777777777778 0.25 0.7222222222222222 0 None
0.5138888888888888 0.24999999999999997 0.736111111111111 0 None
0.5 0.25 0.75 0 W
0.5 0.25 0.75 0 W
0.5 0.2647058823529412 0.7352941176470589 0 None
0.5 0.27941176470588236 0.7205882352941176 0 None
0.5000000000000001 0.29411764705882354 0.7058823529411765 0 None
0.5 0.3088235294117647 0.6911764705882353 0 None
0.5 0.3235294117647059 0.6764705882352942 0 None
0.5 0.3382352941176471 0.6617647058823529 0 None
0.5 0.35294117647058826 0.6470588235294118 0 None
0.5000000000000001 0.36764705882352944 0.6323529411764707 0 None
0.5000000000000001 0.3823529411764706 0.6176470588235294 0 None
0.5 0.3970588235294118 0.6029411764705882 0 None
0.5000000000000001 0.411764705882353 0.588235294117647 0 None
0.5 0.42647058823529416 0.573529411764706 0 None
0.5000000000000001 0.4411764705882353 0.5588235294117648 0 None
0.5000000000000001 0.4558823529411765 0.5441176470588236 0 None
0.5 0.4705882352941177 0.5294117647058825 0 None
0.5000000000000001 0.4852941176470588 0.5147058823529413 0 None
0.5000000000000001 0.5 0.5000000000000001 0 L
0.5000000000000001 0.5 0.5000000000000001 0 L
0.4916666666666668 0.4916666666666667 0.5166666666666668 0 None
0.4833333333333334 0.48333333333333334 0.5333333333333334 0 None
0.47500000000000003 0.47500000000000003 0.55 0 None
0.46666666666666673 0.46666666666666673 0.5666666666666668 0 None
0.45833333333333337 0.4583333333333334 0.5833333333333334 0 None
0.45000000000000007 0.45 0.6 0 None
0.44166666666666676 0.4416666666666667 0.6166666666666667 0 None
0.4333333333333334 0.43333333333333335 0.6333333333333333 0 None
0.4250000000000001 0.42500000000000004 0.65 0 None
0.4166666666666668 0.4166666666666667 0.6666666666666667 0 None
0.40833333333333344 0.4083333333333334 0.6833333333333333 0 None
0.4000000000000001 0.4 0.7000000000000001 0 None
0.3916666666666668 0.39166666666666666 0.7166666666666667 0 None
0.3833333333333334 0.38333333333333336 0.7333333333333334 0 None
0.37500000000000006 0.37500000000000006 0.7500000000000001 0 K
0.625 0.24999999999999997 0.625 0 U
0.611111111111111 0.2222222222222222 0.611111111111111 0 None
0.5972222222222222 0.19444444444444442 0.5972222222222222 0 None
0.5833333333333334 0.16666666666666666 0.5833333333333334 0 None
0.5694444444444444 0.13888888888888887 0.5694444444444444 0 None
0.5555555555555556 0.1111111111111111 0.5555555555555556 0 None
0.5416666666666666 0.08333333333333333 0.5416666666666666 0 None
0.5277777777777778 0.05555555555555554 0.5277777777777778 0 None
0.5138888888888888 0.027777777777777773 0.513888888888889 0 None
0.5 0.0 0.5 0 X
