Mg1 O1
1.0
   2.5765404279480668    0.0000000024287037    1.4875667877609073
   0.8588471393109152    2.4291854341126440    1.4875667877794496
  -0.0000000063743216    0.0000000026091604    2.9751315727952168
Mg O
1 1
direct
   0.0000000000000000    0.0000000000000000    0.0000000000000000 Mg
   0.5000000000000000    0.5000000000000000    0.5000000000000000 O
