ALGO = Fast
EDIFF = 1e-05
ENAUG = 1360
ENCUT = 520
GGA = Ps
IBRION = 0
ISIF = 2
ISMEAR = 0
ISPIN = 1
ISYM = 0
KBLOCK = 100
LAECHG = False
LASPH = True
LCHARG = False
LDAUPRINT = 0
LELF = False
LMIXTAU = True
LORBIT = 11
LPLANE = False
LREAL = Auto
LVTOT = True
LWAVE = False
MAXMIX = 20
MDALGO = 2
NELM = 500
NELMIN = 4
NSW = 50
POTIM = 2
PREC = Normal
SIGMA = 0.05
SMASS = 0
TEBEG = 300
TEEND = 300
