Si2
1.0
   3.3824078782171720    0.0000000000000000    1.9528338236445306
   1.1274692927390575    3.1889659942996169    1.9528338236445306
   0.0000000000000000    0.0000000000000000    3.9056676472890612
Si
2
direct
   0.8750000000000000    0.8750000000000000    0.8750000000000000 Si
   0.1250000000000000    0.1250000000000000    0.1250000000000000 Si
