ALGO = Normal
EDIFF = 1e-05
ENAUG = 1360
ENCUT = 680
GGA = Pe
HFSCREEN = 0.2
ISMEAR = -5
ISPIN = 2
KSPACING = 0.5
LAECHG = True
LASPH = True
LCHARG = True
LELF = False
LHFCALC = True
LMIXTAU = True
LORBIT = 11
LDAU = False
LREAL = False
LVTOT = True
LWAVE = False
MAGMOM = 2*0.6
NCORE = 4
NELM = 200
NSW = 0
PREC = Accurate
PRECFOCK = Fast
SIGMA = 0.2
