ALGO = Normal
EDIFF = 1e-05
EDIFFG = -0.05
ENAUG = 1360.0
ENCUT = 500
IBRION = 2
ISIF = 2
ISMEAR = 0
ISPIN = 2
LAECHG = False
LASPH = True
LCHARG = False
LELF = False
LMAXMIX = 4
LMIXTAU = True
LORBIT = 11
LREAL = False
LVHAR = True
LVTOT = True
LWAVE = False
MAGMOM = 1*1.0 31*-0.0
NCORE = 4
NELECT = 276.0
NELM = 200
NELMIN = 6
NSW = 99
PREC = Accurate
SIGMA = 0.05
