pymatgen with grid density = 1353 / number of atoms
0
Gamma
3 2 4
