Mg1 Ga15 N16
1.0
3.2162898635941422 5.5707777632328073 0.0000000000000008
9.6488706564058582 -5.5707777632328073 -0.0000000000000000
-0.0000000000000000 -0.0000000000000000 -5.2399620000000002
Mg Ga N
1 15 16
direct
0.7500000000000000 0.9166666666666666 0.4991200000000000 Mg
0.5000000000000001 0.6666666666666667 0.4991199999999999 Ga
0.5000000000000000 0.1666666666666667 0.4991199999999999 Ga
0.2500000000000001 0.4166666666666667 0.4991199999999999 Ga
0.0000000000000002 0.6666666666666667 0.4991200000000000 Ga
0.2500000000000001 0.9166666666666667 0.4991199999999999 Ga
0.0000000000000001 0.1666666666666667 0.4991200000000000 Ga
0.7500000000000001 0.4166666666666666 0.4991199999999999 Ga
0.5000000000000000 0.8333333333333334 0.9991199999999999 Ga
0.5000000000000000 0.3333333333333334 0.9991199999999999 Ga
0.2500000000000000 0.5833333333333333 0.9991199999999999 Ga
0.0000000000000001 0.8333333333333335 0.9991199999999999 Ga
0.2500000000000000 0.0833333333333333 0.9991199999999999 Ga
0.0000000000000000 0.3333333333333333 0.9991199999999999 Ga
0.7500000000000000 0.5833333333333333 0.9991199999999999 Ga
0.7500000000000000 0.0833333333333333 0.9991199999999999 Ga
0.5000000000000001 0.6666666666666667 0.8758800000000000 N
0.5000000000000000 0.1666666666666667 0.8758800000000000 N
0.2500000000000001 0.4166666666666667 0.8758800000000000 N
0.0000000000000002 0.6666666666666667 0.8758800000000000 N
0.2500000000000001 0.9166666666666667 0.8758800000000000 N
0.0000000000000001 0.1666666666666667 0.8758800000000000 N
0.7500000000000001 0.4166666666666666 0.8758800000000000 N
0.7500000000000000 0.9166666666666667 0.8758800000000000 N
0.5000000000000000 0.8333333333333334 0.3758799999999999 N
0.5000000000000000 0.3333333333333334 0.3758799999999999 N
0.2500000000000000 0.5833333333333333 0.3758800000000000 N
0.0000000000000001 0.8333333333333335 0.3758800000000000 N
0.2500000000000000 0.0833333333333333 0.3758800000000000 N
0.0000000000000000 0.3333333333333333 0.3758800000000000 N
0.7500000000000000 0.5833333333333333 0.3758799999999999 N
0.7500000000000000 0.0833333333333333 0.3758799999999999 N
