LatticeConstant 1.0 Ang
%block LatticeVectors
 8.42000000 0.00000000 0.00000000
 0.00000000 8.42000000 0.00000000
 0.00000000 0.00000000 8.42000000
%endblock LatticeVectors

NumberOfAtoms 65
AtomicCoordinatesFormat Ang
%block AtomicCoordinatesAndAtomicSpecies
 -0.00644673  0.00024160  0.00023994 1 #  1: Mg
  2.15883832 -0.02688172 -0.02688213 2 #  2: O
 -0.00381333  2.09864543  2.09864424 1 #  3: Mg
  2.15591333  2.11406064  2.11406008 2 #  4: O
  2.08720675 -0.00900340  2.11466931 1 #  5: Mg
  0.05614448 -0.00641018  2.12266500 2 #  6: O
  2.08720657  2.11466904 -0.00900287 1 #  7: Mg
  0.05614355  2.12266766 -0.00641420 2 #  8: O
  0.00291710 -0.00330757  4.20479740 1 #  9: Mg
  2.13519232  0.02092607  4.22490288 2 # 10: O
 -0.00088852  2.10621209  6.32102653 1 # 11: Mg
  2.13057860  2.10473846  6.29409565 2 # 12: O
  2.09878233 -0.00538083  6.31386076 1 # 13: Mg
  0.00432412 -0.01364479  6.28087854 2 # 14: O
  2.10123584  2.11301833  4.21130825 1 # 15: Mg
 -0.01724353  2.10653510  4.24334558 2 # 16: O
  0.00291554  4.20478720 -0.00329967 1 # 17: Mg
  2.13519187  4.22490239  0.02092620 2 # 18: O
 -0.00087270  6.32102427  2.10621860 1 # 19: Mg
  2.13057491  6.29409566  2.10473625 2 # 20: O
  2.10123540  4.21130864  2.11301788 1 # 21: Mg
 -0.01724411  4.24333947  2.10653046 2 # 22: O
  2.09878726  6.31386542 -0.00537381 1 # 23: Mg
  0.00432676  6.28087265 -0.01364183 2 # 24: O
 -0.00298419  4.21491412  4.21491879 1 # 25: Mg
  2.13882725  4.17937052  4.17937221 2 # 26: O
  0.00374082  6.31756385  6.31752037 1 # 27: Mg
  2.12578971  6.30315507  6.30315689 2 # 28: O
  2.10865494  4.21614506  6.31642029 1 # 29: Mg
 -0.02439374  4.18734565  6.31776127 2 # 30: O
  2.10864889  6.31642897  4.21615294 1 # 31: Mg
 -0.02439086  6.31775449  4.18735787 2 # 32: O
  4.22717958 -0.01766318 -0.01766242 1 # 33: Mg
  6.26434310  0.00203653  0.00204545 2 # 34: O
  4.22797349  2.12316327  2.12316324 1 # 35: Mg
  6.27131596  2.11063564  2.11064163 2 # 36: O
  6.31748121  0.00746208  2.10673878 1 # 37: Mg
  4.17512725  0.04723651  2.05666003 2 # 38: O
  6.31747892  2.10676176  0.00746044 1 # 39: Mg
  4.17512379  2.05665859  0.04723610 2 # 40: O
  4.20999504 -0.01121665  4.21420710 1 # 41: Mg
  6.28748922  0.01338467  4.24467432 2 # 42: O
  4.20792138  2.11525552  6.31173129 1 # 43: Mg
  6.29035397  2.09502387  6.28414378 2 # 44: O
  6.32468060  0.00241354  6.31546615 1 # 45: Mg
  4.20525583  0.00591360  6.29044063 2 # 46: O
  6.32507885  2.09075402  4.20810560 1 # 47: Mg
  4.17167126  2.11539995  4.18348958 2 # 48: O
  4.20999606  4.21420889 -0.01121531 1 # 49: Mg
  6.28749082  4.24466532  0.01337947 2 # 50: O
  4.20792194  6.31173114  2.11525672 1 # 51: Mg
  6.29034860  6.28413397  2.09500478 2 # 52: O
  6.32508538  4.20811195  2.09075483 1 # 53: Mg
  4.17166697  4.18348980  2.11540400 2 # 54: O
  6.32466419  6.31546976  0.00241634 1 # 55: Mg
  4.20526039  6.29043827  0.00591352 2 # 56: O
  4.19481494  4.21106608  4.21106487 1 # 57: Mg
  6.31516143  4.20314484  4.20315086 2 # 58: O
  4.20270676  6.30213041  6.30212882 1 # 59: Mg
  6.31617351  6.33322961  6.33323039 2 # 60: O
  6.32519823  4.20720711  6.31453852 1 # 61: Mg
  4.21747633  4.19151102  6.33797909 2 # 62: O
  6.32519364  6.31453539  4.20720143 1 # 63: Mg
  4.21747809  6.33797863  4.19151397 2 # 64: O
  3.32278609  1.05191434  1.05191426 3 # 65: Li
%endblock AtomicCoordinatesAndAtomicSpecies

NumberOfSpecies 3
%block ChemicalSpeciesLabel
 1 12 Mg
 2 8 O
 3 3 Li
%endblock ChemicalSpeciesLabel
