Au16
1.0
   8.3927098129985858    0.0000000000000000    0.0000000000000005
   0.0000000000000013    8.3927098129985858    0.0000000000000005
   0.0000000000000000    0.0000000000000000   25.1781294389957573
Au
16
direct
   0.0000000000000000    0.0000000000000000    0.4590017315484460 Au
  -0.0000000000000000    0.5000000000000000    0.4590017315484460 Au
   0.5000000000000000   -0.0000000000000000    0.4590017315484460 Au
   0.5000000000000000    0.5000000000000000    0.4590017315484460 Au
   0.0000000000000000    0.2500000000000000    0.5409982684515540 Au
  -0.0000000000000000    0.7500000000000000    0.5409982684515540 Au
   0.5000000000000000    0.2500000000000000    0.5409982684515540 Au
   0.5000000000000000    0.7500000000000000    0.5409982684515540 Au
   0.2500000000000000   -0.0000000000000000    0.5409982684515540 Au
   0.2500000000000000    0.5000000000000000    0.5409982684515540 Au
   0.7500000000000000   -0.0000000000000000    0.5409982684515540 Au
   0.7500000000000000    0.5000000000000000    0.5409982684515540 Au
   0.2500000000000000    0.2500000000000000    0.4590017315484460 Au
   0.2500000000000000    0.7500000000000000    0.4590017315484460 Au
   0.7500000000000000    0.2500000000000000    0.4590017315484460 Au
   0.7500000000000000    0.7500000000000000    0.4590017315484460 Au
