Au16
1.0
   8.3973470668481660    0.0000000000000000    0.0000000000000005
   0.0000000000000014    8.3973470668481660    0.0000000000000005
   0.0000000000000000    0.0000000000000000   25.1920412005444980
Au
16
direct
   0.0000000000000000   -0.0000000000000000    0.4591293947196093 Au
   0.0000000000000000    0.5000000000000000    0.4591293947196093 Au
   0.5000000000000000    0.0000000000000000    0.4591293947196093 Au
   0.5000000000000000    0.5000000000000000    0.4591293947196093 Au
  -0.0000000000000000    0.2500000000000000    0.5408706052803907 Au
  -0.0000000000000000    0.7500000000000000    0.5408706052803907 Au
   0.5000000000000000    0.2500000000000000    0.5408706052803907 Au
   0.5000000000000000    0.7500000000000000    0.5408706052803907 Au
   0.2500000000000000    0.0000000000000000    0.5408706052803907 Au
   0.2500000000000000    0.5000000000000000    0.5408706052803907 Au
   0.7500000000000000   -0.0000000000000000    0.5408706052803907 Au
   0.7500000000000000    0.5000000000000000    0.5408706052803907 Au
   0.2500000000000000    0.2500000000000000    0.4591293947196093 Au
   0.2500000000000000    0.7500000000000000    0.4591293947196093 Au
   0.7500000000000000    0.2500000000000000    0.4591293947196093 Au
   0.7500000000000000    0.7500000000000000    0.4591293947196093 Au
