ALGO = Fast
EDIFF = 1e-05
ENAUG = 1360.0
ENCUT = 680.0
GGA = Ps
ISMEAR = -5
ISPIN = 2
KSPACING = 0.29539340980039036
LAECHG = True
LASPH = True
LCHARG = True
LELF = True
LMIXTAU = True
LORBIT = 11
LREAL = False
LVTOT = True
LWAVE = False
MAGMOM = 2*0.0
METAGGA = R2scan
NELM = 200
NSW = 0
PREC = Accurate
SIGMA = 0.05
