LatticeConstant 1.0 Ang
%block LatticeVectors
 8.42000000 0.00000000 0.00000000
 0.00000000 8.42000000 0.00000000
 0.00000000 0.00000000 8.42000000
%endblock LatticeVectors

NumberOfAtoms 65
AtomicCoordinatesFormat Ang
%block AtomicCoordinatesAndAtomicSpecies
 -0.01643280 -0.01264134 -0.01264174 1 #  1: Mg
  2.09846044 -0.01286277 -0.01286370 2 #  2: O
 -0.01503104  2.11804333  2.11804293 1 #  3: Mg
  2.08797126  2.08957526  2.08957566 2 #  4: O
  2.11791100 -0.01057132  2.11596793 1 #  5: Mg
  0.01280955  0.00557472  2.09560980 2 #  6: O
  2.11791070  2.11596865 -0.01057126 1 #  7: Mg
  0.01280930  2.09561066  0.00558223 2 #  8: O
  0.00161365 -0.00167113  4.20720296 1 #  9: Mg
  2.09282046  0.01144347  4.20901116 2 # 10: O
 -0.00153941  2.10513898  6.31911202 1 # 11: Mg
  2.09675524  2.10935422  6.30220807 2 # 12: O
  2.10795245 -0.00310410  6.31804091 1 # 13: Mg
 -0.00096449  0.00065983  6.30343409 2 # 14: O
  2.10553167  2.10181569  4.20837280 1 # 15: Mg
  0.02026369  2.11158383  4.20484668 2 # 16: O
  0.00161509  4.20720296 -0.00167157 1 # 17: Mg
  2.09281522  4.20900401  0.01144687 2 # 18: O
 -0.00154016  6.31911206  2.10513990 1 # 19: Mg
  2.09676067  6.30221205  2.10937041 2 # 20: O
  2.10553221  4.20837322  2.10181332 1 # 21: Mg
  0.02026297  4.20484279  2.11158703 2 # 22: O
  2.10796141  6.31803578 -0.00310601 1 # 23: Mg
 -0.00096425  6.30343726  0.00065479 2 # 24: O
  0.00089603  4.21023053  4.21023063 1 # 25: Mg
  2.08853453  4.20125829  4.20125656 2 # 26: O
  0.00359816  6.31382022  6.31382049 1 # 27: Mg
  2.10139142  6.31108327  6.31106782 2 # 28: O
  2.10518343  4.21189637  6.31719000 1 # 29: Mg
  0.00681848  4.21311373  6.31984557 2 # 30: O
  2.10518314  6.31718699  4.21189767 1 # 31: Mg
  0.00682206  6.31984670  4.21311550 2 # 32: O
  4.21468722  0.00197539  0.00198501 1 # 33: Mg
  6.33587858 -0.00137456 -0.00138042 2 # 34: O
  4.21069078  2.10189480  2.10189498 1 # 35: Mg
  6.33352851  2.10707783  2.10708018 2 # 36: O
  6.31491848 -0.00356217  2.10430962 1 # 37: Mg
  4.19332888  0.00529407  2.11012012 2 # 38: O
  6.31491911  2.10430902 -0.00356230 1 # 39: Mg
  4.19333093  2.11011332  0.00529259 2 # 40: O
  4.20830820  0.00274947  4.20750374 1 # 41: Mg
  6.31537176  0.00391365  4.22746155 2 # 42: O
  4.21229802  2.10255849  6.31786243 1 # 43: Mg
  6.31565046  2.10110178  6.29924046 2 # 44: O
  6.31463201  0.00469250  6.31804047 1 # 45: Mg
  4.20228314 -0.00735952  6.29899828 2 # 46: O
  6.30964867  2.10192526  4.20915787 1 # 47: Mg
  4.21853716  2.10386948  4.22558713 2 # 48: O
  4.20830654  4.20750979  0.00274614 1 # 49: Mg
  6.31537813  4.22745872  0.00391824 2 # 50: O
  4.21229800  6.31786053  2.10255319 1 # 51: Mg
  6.31565387  6.29924217  2.10111062 2 # 52: O
  6.30964793  4.20916068  2.10192469 1 # 53: Mg
  4.21853392  4.22558638  2.10387695 2 # 54: O
  6.31462531  6.31803934  0.00469349 1 # 55: Mg
  4.20228461  6.29900710 -0.00737915 2 # 56: O
  4.21438805  4.20893100  4.20893234 1 # 57: Mg
  6.30088280  4.20721880  4.20721917 2 # 58: O
  4.20588720  6.31956993  6.31959892 1 # 59: Mg
  6.31045054  6.32399656  6.32398339 2 # 60: O
  6.31158561  4.20372665  6.31595482 1 # 61: Mg
  4.22428986  4.20637446  6.31211032 2 # 62: O
  6.31158823  6.31595545  4.20372554 1 # 63: Mg
  4.22429129  6.31212148  4.20635665 2 # 64: O
  0.98136360  1.05457182  1.05457187 3 # 65: Li
%endblock AtomicCoordinatesAndAtomicSpecies

NumberOfSpecies 3
%block ChemicalSpeciesLabel
 1 12 Mg
 2 8 O
 3 3 Li
%endblock ChemicalSpeciesLabel
