LatticeConstant 1.0 Ang
%block LatticeVectors
 4.27000000 0.00000000 0.00000000
 0.00000000 4.27000000 0.00000000
 0.00000000 0.00000000 4.27000000
%endblock LatticeVectors

NumberOfAtoms 4
AtomicCoordinatesFormat Ang
%block AtomicCoordinatesAndAtomicSpecies
 0.00000000 0.00000000 0.00000000 1 # 1: Cu
 2.13500000 2.13500000 2.13500000 1 # 2: Cu
 2.13500000 0.00000000 0.00000000 2 # 3: O
 0.00000000 2.13500000 2.13500000 2 # 4: O
%endblock AtomicCoordinatesAndAtomicSpecies

NumberOfSpecies 2
%block ChemicalSpeciesLabel
 1 29 Cu
 2 8 O
%endblock ChemicalSpeciesLabel
