ALGO = Fast
EDIFF = 1e-05
EDIFFG = -0.05
ENAUG = 1360
ENCUT = 500
GGA = Ps
IBRION = 2
ISIF = 2
ISMEAR = 0
ISPIN = 2
LAECHG = False
LASPH = True
LCHARG = False
LELF = False
LMIXTAU = True
LORBIT = 11
LREAL = False
LVTOT = True
LWAVE = True
MAGMOM = 7*0.6
NELECT = 27.0
NELM = 200
NELMIN = 6
NSW = 99
PREC = Accurate
SIGMA = 0.05
