Si2
1.0
3.348898 0.000000 1.933487
1.116299 3.157372 1.933487
0.000000 0.000000 3.866975
Si
2
direct
0.250848 0.237797 0.252134 Si
0.999152 0.012203 0.997866 Si
