#---------------------------------#
#  Atomate2-Siesta Generated FDF 
#---------------------------------#
SystemName	siesta
SystemLabel	siesta

#------------------------#
#  Structure Definition 
#------------------------#
%include structure.fdf


LongOutput	True
#--------------------------#
#  BasisSetsAndProjectors 
#--------------------------#
PAO.BasisType	split  # SIESTA DEFAULT VALUE
PAO.BasisSize	DZP  # SIESTA DEFAULT VALUE
PAO.EnergyShift	0.01 Ry  # SIESTA DEFAULT VALUE
PAO.SplitNorm	0.15  # SIESTA DEFAULT VALUE
PAO.SplitNormH	1.0  # SIESTA DEFAULT VALUE
PAO.SplitTailNorm	true  # SIESTA DEFAULT VALUE
PAO.SplitValenceLegacy	true  # SIESTA DEFAULT VALUE
PAO.FixSplitTable	false  # SIESTA DEFAULT VALUE
PAO.Filter.Cutoff	20.0 Ry  # SIESTA DEFAULT VALUE
PAO.Filter.PolarizationCutoff	20.0 Ry  # SIESTA DEFAULT VALUE
PAO.Filter.Tolerance	0.0 eV  # SIESTA DEFAULT VALUE
PAO.ContractionCutoff	0.0  # SIESTA DEFAULT VALUE
PAO.Polarization.NonPerturbative	true  # SIESTA DEFAULT VALUE
PAO.Polarization.RcExpansionFactor	1.0  # SIESTA DEFAULT VALUE
PAO.SoftDefault.InnerRadius	0.9 Bohr  # SIESTA DEFAULT VALUE
PAO.SoftDefault.Potential	40.0 Ry  # SIESTA DEFAULT VALUE
BasisPressure	0.2 GPa  # SIESTA DEFAULT VALUE
#----------------------------------#
#  ExchangeCorrelationFunctionals 
#----------------------------------#
XC.Functional	GGA
XC.Authors	PBE
#------------------#
#  KPointSampling 
#------------------#
%block kgrid.Monkhorst.Pack
1 0 0 0.0
0 1 0 0.0
0 0 1 0.0
%endblock kgrid.Monkhorst.Pack
#---------------------------#
#  RealSpaceGridParameters 
#---------------------------#
Mesh.Cutoff	150.0 Ry
Mesh.SubDivisions	2  # SIESTA DEFAULT VALUE
EggboxScale	1.0 eV  # SIESTA DEFAULT VALUE
#---------------------#
#  SCFLoopParameters 
#---------------------#
MaxSCFIterations	200  # SIESTA DEFAULT VALUE
SCF.MustConverge	True  # SIESTA DEFAULT VALUE
SCF.Mixer.Weight	0.1
SCF.Mixer.History	8
SCF.DM.Tolerance	1e-05 eV  # SIESTA DEFAULT VALUE
DM.UseSaveDM	True  # SIESTA DEFAULT VALUE
#---------------------------------#
#  Electronic Structure Settings 
#---------------------------------#
Diag.Algorithm	divide-and-Conquer  # SIESTA DEFAULT VALUE
OccupationFunction	MP
OccupationMPOrder	1  # SIESTA DEFAULT VALUE
ElectronicTemperature	25.0 K





