Na4 Cl4
1.0
   5.6916940000000000    0.0000000000000000    0.0000000000000000
   0.0000000000000000    5.6916940000000000    0.0000000000000000
   0.0000000000000000    0.0000000000000000    5.6916940000000000
Na Cl
4 4
direct
   0.0017569461745484    0.0000000000000000    0.0000000000000000 Na
   0.0000000000000000    0.5000000000000000    0.5000000000000000 Na
   0.5000000000000000    0.0000000000000000    0.5000000000000000 Na
   0.5000000000000000    0.5000000000000000    0.0000000000000000 Na
   0.5000000000000000    0.0000000000000000    0.0000000000000000 Cl
   0.5000000000000000    0.5000000000000000    0.5000000000000000 Cl
   0.0000000000000000    0.0000000000000000    0.5000000000000000 Cl
   0.0000000000000000    0.5000000000000000    0.0000000000000000 Cl
