#===============================================================================
# Created using the Atomic Simulation Environment (ASE)

# Thu Sep 28 15:04:36 2023

#=======================================================
lattice_vector 5.6303521099999996 -0.0000000799999998 -0.0000000899999999 
lattice_vector 0.0000000899999996 5.6303523800000006 0.0000000099999999 
lattice_vector 0.0000000700000003 -0.0000000000000006 5.6303523699999998 
atom_frac 0.5017760905187862 0.5000000000000000 0.4999999973358684 Si
atom_frac 0.5000000026641317 -0.0000000000000000 0.9999999973358681 Si
atom_frac 0.0000000026641318 0.5000000000000001 0.9999999973358683 Si
atom_frac 0.0000000026641318 0.0000000000000000 0.4999999973358682 Si
atom_frac 0.7499999960038021 0.7500000008880443 0.7500000039961972 Si
atom_frac 0.7499999960038022 0.2500000008880439 0.2500000039961972 Si
atom_frac 0.2499999960038022 0.7500000008880440 0.2500000039961972 Si
atom_frac 0.2499999960038022 0.2500000008880439 0.7500000039961972 Si
