LatticeConstant 1.0 Ang
%block LatticeVectors
 8.42000000 0.00000000 0.00000000
 0.00000000 8.42000000 0.00000000
 0.00000000 0.00000000 8.42000000
%endblock LatticeVectors

NumberOfAtoms 65
AtomicCoordinatesFormat Ang
%block AtomicCoordinatesAndAtomicSpecies
 -0.01635965 -0.00806909 -0.00806963 1 #  1: Mg
  2.02195604 -0.02213092 -0.02213167 2 #  2: O
 -0.01549811  2.11359037  2.11358932 1 #  3: Mg
  2.11363860  2.13709826  2.13709701 2 #  4: O
  2.12809953 -0.01751684  2.12295824 1 #  5: Mg
  0.03864557 -0.02796197  2.13072695 2 #  6: O
  2.12809959  2.12296026 -0.01751597 1 #  7: Mg
  0.03864402  2.13072461 -0.02796096 2 #  8: O
  0.00799722 -0.01971246  4.21156594 1 #  9: Mg
  2.05301004  0.03649362  4.21825538 2 # 10: O
  0.00508039  2.12053252  6.31947267 1 # 11: Mg
  2.06314788  2.11927107  6.28213136 2 # 12: O
  2.10065903 -0.00474727  6.30676256 1 # 13: Mg
  0.00255781 -0.00254339  6.28455347 2 # 14: O
  2.11080953  2.12496942  4.22257128 1 # 15: Mg
  0.07824494  2.13544659  4.11299352 2 # 16: O
  0.00799914  4.21156603 -0.01971381 1 # 17: Mg
  2.05299790  4.21823917  0.03650334 2 # 18: O
  0.00508033  6.31947228  2.12052955 1 # 19: Mg
  2.06314485  6.28213505  2.11931781 2 # 20: O
  2.11081517  4.22257234  2.12496671 1 # 21: Mg
  0.07824325  4.11300311  2.13545476 2 # 22: O
  2.10066978  6.30676121 -0.00475051 1 # 23: Mg
  0.00254929  6.28455675 -0.00254572 2 # 24: O
  0.02849929  4.21568848  4.21569047 1 # 25: Mg
  2.04120851  4.12734400  4.12735193 2 # 26: O
  0.02957992  6.30905451  6.30905869 1 # 27: Mg
  2.07946277  6.29774872  6.29771477 2 # 28: O
  2.09591118  4.22597381  6.30598962 1 # 29: Mg
 -0.00216111  4.09446955  6.38225955 2 # 30: O
  2.09590875  6.30598175  4.22596687 1 # 31: Mg
 -0.00215639  6.38228544  4.09446364 2 # 32: O
  4.20832077 -0.01286702 -0.01286059 1 # 33: Mg
  6.40750433  0.01297698  0.01297702 2 # 34: O
  4.20561269  2.11506616  2.11506262 1 # 35: Mg
  6.39711151  2.10455931  2.10457019 2 # 36: O
  6.31950087 -0.01422200  2.10602234 1 # 37: Mg
  4.13752163  0.01532193  2.13021318 2 # 38: O
  6.31949528  2.10599897 -0.01422097 1 # 39: Mg
  4.13752645  2.13019712  0.01531633 2 # 40: O
  4.21050174 -0.01100035  4.22521562 1 # 41: Mg
  6.33686445  0.02845333  4.25724569 2 # 42: O
  4.22352781  2.11019511  6.30859057 1 # 43: Mg
  6.33695662  2.07675912  6.27636373 2 # 44: O
  6.29355812  0.01435641  6.32645342 1 # 45: Mg
  4.17748232 -0.03521288  6.25484732 2 # 46: O
  6.28840280  2.10827463  4.22093358 1 # 47: Mg
  4.27201680  2.10310566  4.26967211 2 # 48: O
  4.21049674  4.22521418 -0.01099467 1 # 49: Mg
  6.33687661  4.25724911  0.02846246 2 # 50: O
  4.22353159  6.30858343  2.11018490 1 # 51: Mg
  6.33697341  6.27637546  2.07677851 2 # 52: O
  6.28839431  4.22092792  2.10826378 1 # 53: Mg
  4.27200601  4.26967138  2.10311824 2 # 54: O
  6.29355565  6.32644776  0.01435936 1 # 55: Mg
  4.17748345  6.25486480 -0.03525250 2 # 56: O
  4.20149342  4.20684631  4.20684771 1 # 57: Mg
  6.26117100  4.17416630  4.17417349 2 # 58: O
  4.19597225  6.33464489  6.33470622 1 # 59: Mg
  6.27631759  6.36401623  6.36398784 2 # 60: O
  6.30618432  4.18428911  6.32371342 1 # 61: Mg
  4.26750854  4.13843086  6.32615349 2 # 62: O
  6.30618765  6.32370986  4.18428750 1 # 63: Mg
  4.26751243  6.32617390  4.13846259 2 # 64: O
  1.20064194  1.05236409  1.05236378 3 # 65: Li
%endblock AtomicCoordinatesAndAtomicSpecies

NumberOfSpecies 3
%block ChemicalSpeciesLabel
 1 12 Mg
 2 8 O
 3 3 Li
%endblock ChemicalSpeciesLabel
