Mg2 Mn4 O8
1.0
  -1.4014234907582928    4.8865897837108792   -2.6691238383579217
  -0.0069541406357716   -0.0092281737952862    6.1630286405861012
   5.0835759240517149   -0.0002037503625887   -2.6691232048250448
Mg Mn O
2 4 8
direct
   0.6250051594669811    0.7500002084196008    0.3749950409351303 Mg
   0.3749948405330188    0.2499997915803992    0.6250049590648695 Mg
   0.5000000000000000    0.0000000000000000    0.0000000000000000 Mn
  -0.0000000000000000    0.0000000000000000    0.0000000000000000 Mn
  -0.0000000000000000    0.5000000000000000    0.0000000000000000 Mn
  -0.0000000000000000    0.5000000000000000    0.5000000000000000 Mn
   0.7780153749540395    0.5089115097681376    0.7544652575013959 O
   0.2455065232577705    0.9910347396901619    0.7691170366651874 O
   0.2455348375554888    0.9910888555182790    0.2219849153485846 O
   0.2219846250459604    0.4910884902318622    0.2455347424986040 O
   0.7691170764523627    0.4910345288427763    0.2455063509885897 O
   0.7544934767422294    0.0089652603098382    0.2308829633348126 O
   0.2308829235476373    0.5089654711572236    0.7544936490114101 O
   0.7544651624445112    0.0089111444817208    0.7780150846514153 O
