Mg2 Mn4 O8
1.0
  -1.4013627584047403    4.8863814616147661   -2.6690096428701415
  -0.0069000597693647   -0.0091579237479205    6.1628646215114546
   5.0833568514662772   -0.0002027328146935   -2.6690078035749418
Mg Mn O
2 4 8
direct
   0.6250046392730044    0.7499993302874581    0.3749946584820302 Mg
   0.3749953607269955    0.2500006697125421    0.6250053415179697 Mg
   0.5000000000000000   -0.0000000000000000    0.0000000000000000 Mn
  -0.0000000000000000   -0.0000000000000000    0.0000000000000000 Mn
  -0.0000000000000000    0.5000000000000000    0.0000000000000000 Mn
  -0.0000000000000000    0.5000000000000000    0.5000000000000000 Mn
   0.7780112445054692    0.5089096009337630    0.7544642856563863 O
   0.2455072748279359    0.9910362520651074    0.7691151397739133 O
   0.2455355743036234    0.9910903117108990    0.2219884378819191 O
   0.2219887554945306    0.4910903990662371    0.2455357143436137 O
   0.7691149643992734    0.4910363370673025    0.2455072946161888 O
   0.7544927251720641    0.0089637479348926    0.2308848602260867 O
   0.2308850356007265    0.5089636629326975    0.7544927053838113 O
   0.7544644256963766    0.0089096882891011    0.7780115621180809 O
