Si2
1.0
   3.3488982826904379    0.0000000000000000    1.9334873250000004
   1.1162994275634794    3.1573715802591895    1.9334873250000004
   0.0000000000000000    0.0000000000000000    3.8669746500000000
Si
2
direct
   0.2500000000000000    0.2500000000000000    0.2500000000000000 Si
   0.0000000000000000    0.0000000000000000    0.0000000000000000 Si
