#
# This is the geometry file that corresponds to the current relaxation step.
# If you do not want this file to be written, set the "write_restart_geometry" flag to .false.
#  aims_uuid : 2CFE867D-C601-4525-A889-A4E70CE7A4DA
#
lattice_vector      0.00000000      2.71500000      2.71500000
lattice_vector      2.71500000      0.00000000      2.71500000
lattice_vector      2.71500000      2.71500000      0.00000000
atom_frac      -0.02302059      0.02302059      0.02302059 Si
atom_frac       0.22698008      0.27301992      0.27301992 Si
#
# What follows is the current estimated Hessian matrix constructed by the BFGS algorithm.
# This is NOT the true Hessian matrix of the system.
# If you do not want this information here, switch it off using the "hessian_to_restart_geometry" keyword.
#
trust_radius             0.2000000030
hessian_file
