ALGO = Normal
EDIFF = 1e-05
ENAUG = 1360
ENCUT = 680
GGA = Pe
ISMEAR = 0
ISPIN = 2
KSPACING = 0.22
LAECHG = True
LASPH = True
LCHARG = True
LMAXMIX = 6
LMIXTAU = True
LORBIT = 11
LREAL = False
LWAVE = True
MAGMOM = 0.6 0.6
NELM = 200
NSW = 0
PREC = Accurate
SIGMA = 0.05
