Si8
1.0
   6.8027047024555198    0.0000000000000000    0.0000000000000003
   0.0000000000000011    6.8027047024555198    0.0000000000000003
   0.0000000000000000    0.0000000000000000    6.8027047024555198
Si
8
direct
   0.7500000000000000    0.7500000000000000    0.2500000000000000 Si
   0.0000000000000000    0.5000000000000000    0.5000000000000000 Si
   0.7500000000000000    0.2500000000000000    0.7500000000000000 Si
   0.0000000000000000    0.0000000000000000    0.0000000000000000 Si
   0.2500000000000000    0.7500000000000000    0.7500000000000000 Si
   0.5000000000000000    0.5000000000000000    0.0000000000000000 Si
   0.2500000000000000    0.2500000000000000    0.2500000000000000 Si
   0.5000000000000000    0.0000000000000000    0.5000000000000000 Si
