pymatgen with grid density = 123 / number of atoms
0
Gamma
2 2 2
