LatticeConstant 1.0 Ang
%block LatticeVectors
 8.42000000 0.00000000 0.00000000
 0.00000000 8.42000000 0.00000000
 0.00000000 0.00000000 8.42000000
%endblock LatticeVectors

NumberOfAtoms 65
AtomicCoordinatesFormat Ang
%block AtomicCoordinatesAndAtomicSpecies
 -0.00252277 -0.00076737 -0.00076736 1 #  1: Mg
  2.10331029 -0.00472620 -0.00472619 2 #  2: O
 -0.00251923  2.10576746  2.10576747 1 #  3: Mg
  2.10331002  2.10963947  2.10963947 2 #  4: O
  2.09223174 -0.04445699  2.14922127 1 #  5: Mg
  0.00171256  0.00067061  2.10432948 2 #  6: O
  2.09223174  2.14922127 -0.04445699 1 #  7: Mg
  0.00171256  2.10432947  0.00067061 2 #  8: O
 -0.00047851 -0.00013866  4.21051371 1 #  9: Mg
  2.10514827  0.00046756  4.20930202 2 # 10: O
 -0.00048209  2.10513907  6.31448283 1 # 11: Mg
  2.10514771  2.10453244  6.31569383 2 # 12: O
  2.10490061 -0.00038932  6.31338750 1 # 13: Mg
  0.00066759  0.00021603  6.31551940 2 # 14: O
  2.10489991  2.10538653  4.21163696 1 # 15: Mg
  0.00066864  2.10478436  4.20948150 2 # 16: O
 -0.00047851  4.21051371 -0.00013865 1 # 17: Mg
  2.10514827  4.20930203  0.00046757 2 # 18: O
 -0.00048208  6.31448282  2.10513907 1 # 19: Mg
  2.10514771  6.31569383  2.10453244 2 # 20: O
  2.10489990  4.21163696  2.10538653 1 # 21: Mg
  0.00066864  4.20948151  2.10478436 2 # 22: O
  2.10490060  6.31338749 -0.00038932 1 # 23: Mg
  0.00066759  6.31551941  0.00021604 2 # 24: O
 -0.00021402  4.21015631  4.21015631 1 # 25: Mg
  2.10506037  4.20946592  4.20946592 2 # 26: O
 -0.00021626  6.31483976  6.31483975 1 # 27: Mg
  2.10506041  6.31553389  6.31553389 2 # 28: O
  2.10494429  4.21047901  6.31452105 1 # 29: Mg
  0.00027262  4.20976804  6.31523211 2 # 30: O
  2.10494429  6.31452104  4.21047901 1 # 31: Mg
  0.00027262  6.31523211  4.20976805 2 # 32: O
  4.21575257 -0.00345070 -0.00345070 1 # 33: Mg
  6.31471210  0.00037367  0.00037367 2 # 34: O
  4.21574885  2.10844888  2.10844888 1 # 35: Mg
  6.31471214  2.10462646  2.10462646 2 # 36: O
  6.31552262 -0.00006528  2.10506492 1 # 37: Mg
  4.20609514  0.00209343  2.10290636 2 # 38: O
  6.31552263  2.10506492 -0.00006527 1 # 39: Mg
  4.20609514  2.10290636  0.00209343 2 # 40: O
  4.21040382 -0.00012157  4.21095710 1 # 41: Mg
  6.31476400  0.00012019  4.20955098 2 # 42: O
  4.21040523  2.10512230  6.31404504 1 # 43: Mg
  6.31476416  2.10487976  6.31544955 2 # 44: O
  6.31507221 -0.00014219  6.31487862 1 # 45: Mg
  4.20930511  0.00031687  6.31565364 2 # 46: O
  6.31507163  2.10514257  4.21012118 1 # 47: Mg
  4.20930501  2.10468322  4.20934718 2 # 48: O
  4.21040382  4.21095709 -0.00012156 1 # 49: Mg
  6.31476400  4.20955097  0.00012019 2 # 50: O
  4.21040523  6.31404503  2.10512229 1 # 51: Mg
  6.31476416  6.31544955  2.10487975 2 # 52: O
  6.31507163  4.21012118  2.10514256 1 # 53: Mg
  4.20930500  4.20934718  2.10468321 2 # 54: O
  6.31507221  6.31487863 -0.00014219 1 # 55: Mg
  4.20930511  6.31565363  0.00031687 2 # 56: O
  4.21021449  4.21017229  4.21017228 1 # 57: Mg
  6.31494647  4.20986846  4.20986846 2 # 58: O
  4.21021579  6.31482401  6.31482401 1 # 59: Mg
  6.31494646  6.31513184  6.31513184 2 # 60: O
  6.31506822  4.21014368  6.31485538 1 # 61: Mg
  4.20973727  4.20961734  6.31538295 2 # 62: O
  6.31506822  6.31485539  4.21014368 1 # 63: Mg
  4.20973726  6.31538295  4.20961734 2 # 64: O
  2.45356510  1.05244208  1.05244207 3 # 65: Li
%endblock AtomicCoordinatesAndAtomicSpecies

NumberOfSpecies 3
%block ChemicalSpeciesLabel
 1 12 Mg
 2 8 O
 3 3 Li
%endblock ChemicalSpeciesLabel
