ALGO = All
EDIFF = 1e-05
EDIFFG = -0.02
ENAUG = 1360.0
ENCUT = 680.0
IBRION = 2
ISIF = 3
ISMEAR = 0
ISPIN = 2
KSPACING = 0.28253269576667883
LAECHG = True
LASPH = True
LCHARG = True
LELF = False
LMIXTAU = True
LORBIT = 11
LREAL = Auto
LVTOT = True
LWAVE = True
MAGMOM = 2*0.0
METAGGA = R2scan
NELM = 200
NSW = 99
PREC = Accurate
SIGMA = 0.05
