ALGO = Normal
EDIFF = 1e-05
ENAUG = 1360.0
ENCUT = 680.0
GGA = Pe
HFSCREEN = 0.2
ISMEAR = -5
ISPIN = 1
KSPACING = 0.5
LAECHG = True
LASPH = True
LCHARG = False
LELF = False
LHFCALC = True
LMIXTAU = True
LOPTICS = True
LORBIT = 11
LREAL = False
LVTOT = True
LWAVE = False
NBANDS = 11
NCORE = 4
NEDOS = 1265
NELM = 200
NELMIN = 5
NSW = 0
PREC = Accurate
PRECFOCK = Fast
SIGMA = 0.05
CSHIFT = 1e-5
LDAU = False
