ALGO = All
EDIFF = 1e-05
EDIFFG = -0.02
ENAUG = 1360.0
ENCUT = 680.0
GGA = Pe
HFSCREEN = 0.2
IBRION = 2
ISIF = 3
ISMEAR = -5
ISPIN = 1
KSPACING = 0.5
LAECHG = True
LASPH = True
LCHARG = False
LELF = True
LHFCALC = True
LMIXTAU = True
LOPTICS = True
LORBIT = 11
LREAL = False
LVTOT = True
LWAVE = False
NBANDS = 11
NCORE = 4
NEDOS = 5062
NELM = 200
NELMIN = 5
NSW = 0
PREC = Accurate
PRECFOCK = Fast
SIGMA = 0.05
