Si2
1.0
3.348898 0.000000 1.933487
1.116299 3.157372 1.933487
0.000000 0.000000 3.866975
Si
2
direct
0.250849 0.237794 0.252134 Si
0.999151 0.012206 0.997866 Si
