ALGO = Fast
EDIFF = 1e-05
ENAUG = 1360
ENCUT = 680
ISMEAR = -5
ISPIN = 2
KSPACING = 0.2940406543216161
LAECHG = True
LASPH = True
LCHARG = True
LELF = False
LMIXTAU = True
LORBIT = 11
LREAL = False
LVTOT = True
LWAVE = False
MAGMOM = 8*-0.0
METAGGA = R2scan
NELM = 200
NSW = 0
PREC = Accurate
SIGMA = 0.05
