Si8
1.0
   5.4415203116586301    0.0001302164644550    0.0000232268911308
   0.0001493382120914    5.4416692626012573    0.0000568557905334
   0.0000402118495210    0.0000325929695930    5.4414914199307356
Si
8
direct
   0.7500195047363466    0.7500528773328182    0.2509024565550255 Si
   0.0008044805864288    0.5000170956772914    0.5000888606109055 Si
   0.7499739393215635    0.2499113816119716    0.7491667243214496 Si
   0.9991936923802767    0.9998829687351070    0.9999371869998668 Si
   0.2501486757450599    0.7499484272871583    0.7508418181759668 Si
   0.5009673440551213    0.4999885473719814    0.0000455320223085 Si
   0.2498521403504935    0.2501126010826784    0.2490982440556344 Si
   0.4990402228247024    0.0000861009009937    0.4999191772588573 Si
