# File created by: sisl 2025-11-23
#
CRYSTAL
#
# Primitive lattice vectors:
#
PRIMVEC
8.42000000 0.00000000 0.00000000
0.00000000 8.42000000 0.00000000
0.00000000 0.00000000 8.42000000
#
# Atomic coordinates (in primitive coordinates)
#
PRIMCOORD
65 1
 12  -0.01381885  -0.01381884  -0.01381885
  8  2.10213493  0.00286507  0.00286507
 12  -0.01381887  2.11881887  2.11881887
  8  2.10213493  2.10213493  2.10213493
 12  2.11881886  -0.01381887  2.11881886
  8  0.00286507  0.00286507  2.10213493
 12  2.11881887  2.11881888  -0.01381887
  8  0.00286507  2.10213493  0.00286507
 12  -0.00016154  -0.00016155  4.21143385
  8  2.10456526  0.00043474  4.20923831
 12  -0.00016155  2.10516155  6.31356616
  8  2.10456526  2.10456525  6.31576170
 12  2.10516156  -0.00016156  6.31356616
  8  0.00043474  0.00043475  6.31576170
 12  2.10516157  2.10516156  4.21143385
  8  0.00043475  2.10456526  4.20923830
 12  -0.00016156  4.21143384  -0.00016156
  8  2.10456526  4.20923831  0.00043474
 12  -0.00016155  6.31356616  2.10516156
  8  2.10456525  6.31576169  2.10456525
 12  2.10516154  4.21143384  2.10516156
  8  0.00043474  4.20923830  2.10456526
 12  2.10516154  6.31356614  -0.00016155
  8  0.00043475  6.31576169  0.00043475
 12  -0.00015962  4.21022763  4.21022763
  8  2.10485767  4.20944852  4.20944852
 12  -0.00015961  6.31477238  6.31477237
  8  2.10485767  6.31555148  6.31555149
 12  2.10515963  4.21022762  6.31477237
  8  0.00014233  4.20944852  6.31555148
 12  2.10515962  6.31477237  4.21022763
  8  0.00014233  6.31555147  4.20944852
 12  4.21143385  -0.00016155  -0.00016155
  8  6.31576169  0.00043474  0.00043474
 12  4.21143384  2.10516155  2.10516155
  8  6.31576169  2.10456526  2.10456525
 12  6.31356614  -0.00016156  2.10516156
  8  4.20923831  0.00043475  2.10456526
 12  6.31356615  2.10516155  -0.00016155
  8  4.20923831  2.10456525  0.00043475
 12  4.21022763  -0.00015962  4.21022763
  8  6.31555148  0.00014233  4.20944852
 12  4.21022762  2.10515960  6.31477236
  8  6.31555149  2.10485767  6.31555148
 12  6.31477238  -0.00015961  6.31477237
  8  4.20944853  0.00014232  6.31555148
 12  6.31477238  2.10515962  4.21022763
  8  4.20944852  2.10485767  4.20944851
 12  4.21022763  4.21022763  -0.00015962
  8  6.31555147  4.20944852  0.00014233
 12  4.21022764  6.31477237  2.10515961
  8  6.31555148  6.31555148  2.10485767
 12  6.31477238  4.21022763  2.10515962
  8  4.20944852  4.20944852  2.10485767
 12  6.31477237  6.31477237  -0.00015961
  8  4.20944853  6.31555148  0.00014233
 12  4.21017196  4.21017196  4.21017196
  8  6.31516647  4.20983353  4.20983353
 12  4.21017196  6.31482804  6.31482804
  8  6.31516647  6.31516647  6.31516648
 12  6.31482805  4.21017195  6.31482803
  8  4.20983353  4.20983353  6.31516647
 12  6.31482803  6.31482804  4.21017197
  8  4.20983353  6.31516647  4.20983353
  3  1.05250000  1.05250000  1.05250000
