65
Lattice="8.419999999815325 0.0 0.0 0.0 8.419999999815325 0.0 0.0 0.0 8.419999999815325" Properties=species:S:1:pos:R:3 pbc="T T T"
Mg      -0.00143384      -0.00016156      -0.00016155
O        2.10786507       0.00286507       0.00286507
Mg      -0.00143384       2.10516155       2.10516155
O        2.10786507       2.10213493       2.10213494
Mg       2.09118115      -0.01381885       2.11881886
O        0.00076169       0.00043474       2.10456526
Mg       2.09118114       2.11881886      -0.01381885
O        0.00076169       2.10456525       0.00043474
Mg      -0.00022763      -0.00015962       4.21022763
O        2.10543475       0.00043475       4.20923831
Mg      -0.00022763       2.10515963       6.31477237
O        2.10543475       2.10456526       6.31576169
Mg       2.10483845      -0.00016155       6.31356616
O        0.00055148       0.00014233       6.31555148
Mg       2.10483845       2.10516155       4.21143384
O        0.00055148       2.10485767       4.20944852
Mg      -0.00022763       4.21022762      -0.00015962
O        2.10543474       4.20923830       0.00043474
Mg      -0.00022762       6.31477238       2.10515960
O        2.10543474       6.31576169       2.10456526
Mg       2.10483845       4.21143384       2.10516155
O        0.00055147       4.20944852       2.10485767
Mg       2.10483844       6.31356616      -0.00016155
O        0.00055147       6.31555148       0.00014233
Mg      -0.00017196       4.21017196       4.21017196
O        2.10514233       4.20944852       4.20944853
Mg      -0.00017196       6.31482804       6.31482805
O        2.10514233       6.31555147       6.31555147
Mg       2.10484039       4.21022764       6.31477237
O        0.00016647       4.20983353       6.31516647
Mg       2.10484038       6.31477237       4.21022762
O        0.00016647       6.31516647       4.20983353
Mg       4.22381885      -0.01381885      -0.01381885
O        6.31423831       0.00043474       0.00043474
Mg       4.22381884       2.11881884       2.11881885
O        6.31423831       2.10456526       2.10456525
Mg       6.31643384      -0.00016155       2.10516154
O        4.20713493       0.00286507       2.10213493
Mg       6.31643382       2.10516156      -0.00016155
O        4.20713493       2.10213493       0.00286507
Mg       4.21016155      -0.00016155       4.21143383
O        6.31444853       0.00014233       4.20944853
Mg       4.21016155       2.10516156       6.31356615
O        6.31444853       2.10485767       6.31555148
Mg       6.31522763      -0.00015961       6.31477238
O        4.20956526       0.00043475       6.31576169
Mg       6.31522763       2.10515962       4.21022763
O        4.20956525       2.10456526       4.20923831
Mg       4.21016155       4.21143384      -0.00016156
O        6.31444853       4.20944853       0.00014233
Mg       4.21016156       6.31356615       2.10516155
O        6.31444852       6.31555148       2.10485767
Mg       6.31522763       4.21022762       2.10515962
O        4.20956526       4.20923831       2.10456526
Mg       6.31522763       6.31477238      -0.00015961
O        4.20956526       6.31576169       0.00043474
Mg       4.21015961       4.21022762       4.21022763
O        6.31483353       4.20983353       4.20983353
Mg       4.21015962       6.31477237       6.31477237
O        6.31483353       6.31516647       6.31516647
Mg       6.31517196       4.21017196       6.31482803
O        4.20985767       4.20944852       6.31555147
Mg       6.31517196       6.31482803       4.21017197
O        4.20985767       6.31555147       4.20944853
Li       3.15750000       1.05250000       1.05250000
