65
Lattice="8.419999999815325 0.0 0.0 0.0 8.419999999815325 0.0 0.0 0.0 8.419999999815325" Properties=species:S:1:pos:R:3 pbc="T T T"
Mg      -0.00893228      -0.00756738      -0.00756738
O        2.10514824      -0.05895237      -0.05895237
Mg      -0.00882442       2.11253408       2.11253408
O        2.10492787       2.15967266       2.15967266
Mg       2.10505863      -0.07267935       2.17608127
O        0.00059159       0.00109226       2.10392852
Mg       2.10505863       2.17608128      -0.07267935
O        0.00059159       2.10392852       0.00109226
Mg      -0.00059791      -0.00025858       4.21133145
O        2.10500161       0.00001793       4.21214473
Mg      -0.00025355       2.10518099       6.31430038
O        2.10500056       2.10460311       6.31603302
Mg       2.10500029      -0.00019586       6.31384069
O        0.00043354       0.00027035       6.31578850
Mg       2.10500074       2.10558961       4.21429431
O        0.00009361       2.10481750       4.20983899
Mg      -0.00059792       4.21133144      -0.00025859
O        2.10500160       4.21214473       0.00001792
Mg      -0.00025354       6.31430038       2.10518098
O        2.10500055       6.31603301       2.10460311
Mg       2.10500073       4.21429431       2.10558961
O        0.00009360       4.20983899       2.10481750
Mg       2.10500028       6.31384068      -0.00019585
O        0.00043354       6.31578849       0.00027035
Mg      -0.00033501       4.21039429       4.21039429
O        2.10500058       4.21004167       4.21004167
Mg      -0.00017874       6.31482805       6.31482805
O        2.10500017       6.31559192       6.31559193
Mg       2.10500020       4.21029929       6.31490557
O        0.00011959       4.20968249       6.31543450
Mg       2.10500019       6.31490557       4.21029928
O        0.00011959       6.31543449       4.20968249
Mg       4.21890515      -0.00757634      -0.00757634
O        6.31500392       0.00044911       0.00044911
Mg       4.21877623       2.11253184       2.11253185
O        6.31499337       2.10455292       2.10455291
Mg       6.31499698      -0.00014633       2.10515032
O        4.20936904       0.00108853       2.10392166
Mg       6.31499697       2.10515032      -0.00014633
O        4.20936904       2.10392166       0.00108853
Mg       4.21059064      -0.00025936       4.21132865
O        6.31505547       0.00013775       4.20947545
Mg       4.21025353       2.10518086       6.31429933
O        6.31502793       2.10486256       6.31557931
Mg       6.31502843      -0.00016381       6.31480040
O        4.20956657       0.00027061       6.31578814
Mg       6.31505447       2.10516607       4.21025368
O        4.20989722       2.10481603       4.20983474
Mg       4.21059064       4.21132866      -0.00025937
O        6.31505547       4.20947545       0.00013775
Mg       4.21025355       6.31429934       2.10518086
O        6.31502792       6.31557931       2.10486256
Mg       6.31505447       4.21025368       2.10516607
O        4.20989723       4.20983475       2.10481603
Mg       6.31502842       6.31480040      -0.00016381
O        4.20956657       6.31578814       0.00027061
Mg       4.21033252       4.21039279       4.21039279
O        6.31504513       4.20985722       4.20985722
Mg       4.21017891       6.31482791       6.31482791
O        6.31501065       6.31517732       6.31517732
Mg       6.31502070       4.21018356       6.31484863
O        4.20988056       4.20968207       6.31543432
Mg       6.31502069       6.31484864       4.21018358
O        4.20988056       6.31543432       4.20968207
Li       2.10500861       1.04786946       1.04786946
