65
Lattice="8.419999999815325 0.0 0.0 0.0 8.419999999815325 0.0 0.0 0.0 8.419999999815325" Properties=species:S:1:pos:R:3 pbc="T T T"
Mg      -0.00432898      -0.00277276      -0.00277275
O        2.09404577      -0.01714559      -0.01714559
Mg      -0.00429695       2.10776643       2.10776643
O        2.09457621       2.12097251       2.12097252
Mg       2.08428426      -0.03280788       2.13737573
O        0.00058307       0.00080337       2.10420873
Mg       2.08428425       2.13737573      -0.03280788
O        0.00058307       2.10420872       0.00080337
Mg      -0.00041517      -0.00020170       4.21065147
O        2.10512514       0.00021490       4.21036216
Mg      -0.00024654       2.10516969       6.31460819
O        2.10526519       2.10458354       6.31588050
Mg       2.10488802      -0.00017819       6.31368652
O        0.00049909       0.00018749       6.31564948
Mg       2.10475001       2.10538391       4.21254080
O        0.00033166       2.10484847       4.20961694
Mg      -0.00041518       4.21065146      -0.00020170
O        2.10512514       4.21036215       0.00021489
Mg      -0.00024653       6.31460820       2.10516967
O        2.10526518       6.31588049       2.10458354
Mg       2.10475000       4.21254080       2.10538391
O        0.00033165       4.20961694       2.10484847
Mg       2.10488800       6.31368651      -0.00017818
O        0.00049909       6.31564948       0.00018749
Mg      -0.00024892       4.21026491       4.21026491
O        2.10506285       4.20967538       4.20967539
Mg      -0.00017636       6.31483020       6.31483021
O        2.10508835       6.31556901       6.31556901
Mg       2.10489463       4.21025878       6.31482867
O        0.00014477       4.20978137       6.31527098
Mg       2.10489462       6.31482867       4.21025877
O        0.00014477       6.31527098       4.20978137
Mg       4.22353331      -0.01300629      -0.01300629
O        6.31455648       0.00043435       0.00043435
Mg       4.22337355       2.11788154       2.11788155
O        6.31454491       2.10456674       2.10456673
Mg       6.31594236      -0.00016087       2.10516396
O        4.20952520       0.00068735       2.10429094
Mg       6.31594234       2.10516397      -0.00016087
O        4.20952520       2.10429094       0.00068735
Mg       4.21032294      -0.00025859       4.21158509
O        6.31468735       0.00013615       4.20948041
Mg       4.21019257       2.10517283       6.31385747
O        6.31466375       2.10486085       6.31556803
Mg       6.31515534      -0.00016222       6.31478961
O        4.20956285       0.00037064       6.31579231
Mg       6.31517549       2.10516782       4.21025669
O        4.20968868       2.10471888       4.20963409
Mg       4.21032294       4.21158510      -0.00025860
O        6.31468734       4.20948041       0.00013615
Mg       4.21019258       6.31385747       2.10517283
O        6.31466374       6.31556803       2.10486085
Mg       6.31517549       4.21025669       2.10516782
O        4.20968868       4.20963409       2.10471888
Mg       6.31515534       6.31478961      -0.00016222
O        4.20956285       6.31579231       0.00037063
Mg       4.21021170       4.21031687       4.21031688
O        6.31491461       4.20985006       4.20985006
Mg       4.21016595       6.31479536       6.31479536
O        6.31489890       6.31517158       6.31517158
Mg       6.31511621       4.21017820       6.31483888
O        4.20986395       4.20953921       6.31551584
Mg       6.31511620       6.31483888       4.21017821
O        4.20986395       6.31551584       4.20953922
Li       2.81119946       1.04958224       1.04958224
