ALGO = Normal
EDIFF = 1e-07
ENAUG = 1360
ENCUT = 680
GGA = Ps
IBRION = 2
ISIF = 2
ISMEAR = -5
ISPIN = 2
ISYM = 0
LAECHG = False
LASPH = True
LCHARG = False
LELF = False
LMAXMIX = 4
LMIXTAU = True
LORBIT = 11
LREAL = False
LVTOT = True
LWAVE = True
MAGMOM = 8*0.6
NBANDS = 52
NELM = 200
NPAR = 4
NSW = 0
PREC = Accurate
SIGMA = 0.05
