$molecule
 0 1
 O      0.0000000000      0.0000000000      0.1210000000
 H     -0.7830000000      0.0000000000     -0.4850000000
 H      0.7830000000      0.0000000000     -0.4850000000
$end

$rem
   job_type = sp
   basis = def2-tzvppd
   max_scf_cycles = 100
   gen_scfman = true
   xc_grid = 3
   thresh = 14
   s2thresh = 16
   scf_algorithm = diis
   resp_charges = true
   symmetry = false
   sym_ignore = true
   method = wb97mv
$end

$nbo
$end

$geom_opt
$end
