ALGO = Fast
EDIFF = 1e-06
EDIFFG = -0.05
ENAUG = 1360
ENCUT = 680
IBRION = 2
ISIF = 3
ISMEAR = 0
ISPIN = 2
KSPACING = 0.22
LAECHG = True
LASPH = True
LCHARG = False
LELF = False
LMAXMIX = 6
LMIXTAU = True
LORBIT = 11
LREAL = False
LVTOT = True
LWAVE = True
MAGMOM = 2*0.6
NELM = 200
NSW = 99
PREC = Accurate
SIGMA = 0.05
