pymatgen with grid density = 783 / number of atoms
0
Gamma
4 4 4
