ALGO = None
EDIFF = 1e-05
ENAUG = 1360.0
ENCUT = 400
ISMEAR = 0
ISPIN = 2
KSPACING = 1
LAECHG = False
LASPH = True
LCHARG = True
LELF = False
LMIXTAU = True
LORBIT = 11
LREAL = False
LVHAR = True
LVTOT = True
LWAVE = False
LWSWQ = True
MAGMOM = 1*0.041 1*0.005 1*0.041 1*0.005 1*0.041 1*0.005 1*0.041
NCORE = 4
NELECT = 28.0
NELM = 200
NELMIN = 6
NSW = 0
PREC = Normal
SIGMA = 0.05
