Mg2 Mn4 O8
1.0
   5.0909544990775935   -0.0002218251417508   -2.6730180188299069
  -1.4034757865507499    4.8936772944597990   -2.6730183800115834
  -0.0110415130729722   -0.0146532064427247    6.1642541406781008
Mg Mn O
2 4 8
direct
   0.3750023476183008    0.6249976523816704    0.7500000199999994 Mg
   0.6249976523816992    0.3750023476183296    0.2499999800000005 Mg
  -0.0000000000000000    0.0000000000000000    0.5000000000000000 Mn
  -0.0000000000000000    0.5000000000000000    0.0000000000000000 Mn
   0.5000000000000000    0.0000000000000000    0.5000000000000000 Mn
  -0.0000000000000000    0.0000000000000000    0.0000000000000000 Mn
   0.7548982924808629    0.7784120911199931    0.5097750754467336 O
   0.7686508801723486    0.2450739540152296    0.9901696416404343 O
   0.2215879488792082    0.2451016875191965    0.9902249045531973 O
   0.2451017075191370    0.2215879088800068    0.4902249245532664 O
   0.2450738140150815    0.7686509101717821    0.4901696116403592 O
   0.2313491198276514    0.7549260459847703    0.0098303583595657 O
   0.7549261859849185    0.2313490898282179    0.5098303883596409 O
   0.7784120511207918    0.7548983124808036    0.0097750954468026 O
