Mg2 Mn4 O8
1.0
   5.0909545033140473   -0.0002218252672384   -2.6730180200002640
  -1.4034757878391055    4.8936772984975505   -2.6730183811819406
  -0.0110415142627305   -0.0146532080215893    6.1642541333076988
Mg Mn O
2 4 8
direct
   0.3750023476599546    0.6249976523400166    0.7500000199999994 Mg
   0.6249976523400455    0.3750023476599835    0.2499999800000005 Mg
   0.0000000000000000   -0.0000000000000000    0.5000000000000000 Mn
   0.0000000000000000    0.5000000000000000   -0.0000000000000000 Mn
   0.5000000000000000   -0.0000000000000000    0.5000000000000000 Mn
   0.0000000000000000   -0.0000000000000000   -0.0000000000000000 Mn
   0.7548982924496653    0.7784120911231091    0.5097750754479139 O
   0.7686508801896794    0.2450739539794833    0.9901696416152010 O
   0.2215879488760922    0.2451016875503940    0.9902249045520171 O
   0.2451017075503346    0.2215879088768909    0.4902249245520861 O
   0.2450738139793351    0.7686509101891128    0.4901696116151258 O
   0.2313491198103206    0.7549260460205168    0.0098303583847989 O
   0.7549261860206650    0.2313490898108872    0.5098303883848740 O
   0.7784120511239078    0.7548983124496059    0.0097750954479829 O
