ALGO = Normal
EDIFF = 1e-05
ENAUG = 1360.0
ENCUT = 680.0
ISMEAR = -5
ISPIN = 1
LAECHG = True
LASPH = True
LCHARG = True
LELF = True
LMIXTAU = True
LORBIT = 11
LREAL = False
LVTOT = True
LWAVE = False
NCORE = 4
NELM = 200
NSW = 0
PREC = Accurate
SIGMA = 0.05
