ALGO = All
EDIFF = 1e-05
ENAUG = 1360.0
ENCUT = 680.0
ISMEAR = 0
ISPIN = 2
KSPACING = 0.28754316109307704
LAECHG = True
LASPH = True
LCHARG = True
LMAXMIX = 6
LMIXTAU = True
LORBIT = 11
LREAL = False
LWAVE = False
METAGGA = R2scan
NELM = 200
NSW = 0
PREC = Accurate
SIGMA = 0.05
