ALGO = Fast
EDIFF = 0.0001
ENCUT = 520
IBRION = 2
ISIF = 3
ISMEAR = -5
ISPIN = 2
LASPH = True
LCHARG = False
LMAXMIX = 4
LORBIT = 11
LREAL = Auto
LWAVE = False
MAGMOM = 1*2.106 1*2.107
NELM = 100
NSW = 99
PREC = Accurate
SIGMA = 0.05
