pymatgen with grid density = 220 / number of atoms
0
Gamma
5 5 3
