Fe2
1.0
   2.3247697431142709    0.0011158394059855   -0.8224083286119700
  -1.1615226345878924    2.0137000999124477   -0.8226732920954348
   1.1372826593766157    1.9704788611038830    3.2175225091681869
Fe
2
direct
   0.4999999975681003    0.5000000220874210    0.5000000028567035 Fe
   0.0000000024318998    0.9999999779125790   -0.0000000028567036 Fe
