LatticeConstant 1.0 Ang
%block LatticeVectors
 8.42000000 0.00000000 0.00000000
 0.00000000 8.42000000 0.00000000
 0.00000000 0.00000000 8.42000000
%endblock LatticeVectors

NumberOfAtoms 65
AtomicCoordinatesFormat Ang
%block AtomicCoordinatesAndAtomicSpecies
 -0.00378034 -0.00164612 -0.00164613 1 #  1: Mg
  2.10500000 -0.00721117 -0.00721116 2 #  2: O
 -0.00377929  2.10664625  2.10664625 1 #  3: Mg
  2.10499999  2.11221984  2.11221985 2 #  4: O
  2.10499994 -0.05236271  2.15719974 1 #  5: Mg
  0.00272378  0.00118990  2.10380947 2 #  6: O
  2.10499995  2.15719976 -0.05236270 1 #  7: Mg
  0.00272375  2.10380947  0.00118991 2 #  8: O
 -0.00049100 -0.00013048  4.21070977 1 #  9: Mg
  2.10499998  0.00046532  4.20933472 2 # 10: O
 -0.00049228  2.10513067  6.31428936 1 # 11: Mg
  2.10499997  2.10453403  6.31566405 2 # 12: O
  2.10499999 -0.00045610  6.31337119 1 # 13: Mg
  0.00071990  0.00026484  6.31558423 2 # 14: O
  2.10499999  2.10545455  4.21162619 1 # 15: Mg
  0.00071978  2.10473525  4.20941601 2 # 16: O
 -0.00049100  4.21070978 -0.00013048 1 # 17: Mg
  2.10499999  4.20933472  0.00046533 2 # 18: O
 -0.00049229  6.31428936  2.10513068 1 # 19: Mg
  2.10499997  6.31566407  2.10453403 2 # 20: O
  2.10499999  4.21162619  2.10545455 1 # 21: Mg
  0.00071976  4.20941601  2.10473524 2 # 22: O
  2.10500002  6.31337121 -0.00045607 1 # 23: Mg
  0.00071988  6.31558420  0.00026485 2 # 24: O
 -0.00022178  4.21016445  4.21016447 1 # 25: Mg
  2.10500000  4.20949494  4.20949493 2 # 26: O
 -0.00022194  6.31483541  6.31483539 1 # 27: Mg
  2.10499998  6.31550521  6.31550521 2 # 28: O
  2.10500004  4.21054116  6.31445922 1 # 29: Mg
  0.00028588  4.20970291  6.31529703 2 # 30: O
  2.10500004  6.31445920  4.21054116 1 # 31: Mg
  0.00028588  6.31529703  4.20970292 2 # 32: O
  4.21378035 -0.00164613 -0.00164612 1 # 33: Mg
  6.31500000  0.00035986  0.00035988 2 # 34: O
  4.21377929  2.10664625  2.10664624 1 # 35: Mg
  6.31500002  2.10464006  2.10464007 2 # 36: O
  6.31500002 -0.00007028  2.10506985 1 # 37: Mg
  4.20727622  0.00118989  2.10380948 2 # 38: O
  6.31500002  2.10506985 -0.00007030 1 # 39: Mg
  4.20727624  2.10380947  0.00118990 2 # 40: O
  4.21049102 -0.00013046  4.21070982 1 # 41: Mg
  6.31499999  0.00011899  4.20958230 2 # 42: O
  4.21049237  2.10513066  6.31428934 1 # 43: Mg
  6.31500000  2.10488103  6.31541771 2 # 44: O
  6.31500015 -0.00013635  6.31489229 1 # 45: Mg
  4.20928013  0.00026485  6.31558421 2 # 46: O
  6.31500019  2.10513606  4.21010794 1 # 47: Mg
  4.20928029  2.10473524  4.20941602 2 # 48: O
  4.21049102  4.21070983 -0.00013046 1 # 49: Mg
  6.31500000  4.20958230  0.00011898 2 # 50: O
  4.21049234  6.31428932  2.10513066 1 # 51: Mg
  6.31500000  6.31541772  2.10488103 2 # 52: O
  6.31500017  4.21010794  2.10513607 1 # 53: Mg
  4.20928028  4.20941602  2.10473524 2 # 54: O
  6.31500015  6.31489228 -0.00013634 1 # 55: Mg
  4.20928012  6.31558421  0.00026485 2 # 56: O
  4.21022177  4.21016437  4.21016438 1 # 57: Mg
  6.31500003  4.20987609  4.20987607 2 # 58: O
  4.21022186  6.31483539  6.31483539 1 # 59: Mg
  6.31500001  6.31512400  6.31512399 2 # 60: O
  6.31500009  4.21013397  6.31486616 1 # 61: Mg
  4.20971413  4.20970292  6.31529703 2 # 62: O
  6.31500007  6.31486615  4.21013396 1 # 63: Mg
  4.20971413  6.31529704  4.20970293 2 # 64: O
  2.10499972  1.05254725  1.05254726 3 # 65: Li
%endblock AtomicCoordinatesAndAtomicSpecies

NumberOfSpecies 3
%block ChemicalSpeciesLabel
 1 12 Mg
 2 8 O
 3 3 Li
%endblock ChemicalSpeciesLabel
