ALGO = Fast
EDIFF = 1e-05
EDIFFG = -0.02
ENAUG = 1360
ENCUT = 520
GGA = Ps
IBRION = 0
ISIF = 2
ISMEAR = -5
ISPIN = 1
ISYM = 0
KBLOCK = 100
LAECHG = True
LASPH = True
LCHARG = False
LELF = False
LMIXTAU = True
LORBIT = 11
LREAL = False
LVTOT = True
LWAVE = False
MAXMIX = 20
MDALGO = 2
NELM = 500
NELMIN = 4
NSW = 3
POTIM = 1
PREC = Normal
SIGMA = 0.05
SMASS = 0
TEBEG = 300
TEEND = 300.0
