Si2
1.0
   3.3488980000000002    0.0000000000000000    1.9334870000000000
   1.1162989999999999    3.1573720000000001    1.9334870000000000
   0.0000000000000000    0.0000000000000000    3.8669750000000001
Si
2
direct
   0.2522405717926650    0.2450634335621342    0.2492943829866818 Si
   0.9977594282073351    0.0049365648378658    0.0007056197833182 Si

   0.0003589612200000   -0.0028134973000000   -0.0014224528000000
  -0.0003589612200000    0.0028134973000000    0.0014224528000000

1
   1.0000000000000000
 -0.10996701E-01 -0.72234638E-02 -0.42099336E-02 -0.52800025E-02
   0.2526447900000000    0.2441723500000000    0.2491699700000000
   0.9973552100000000    0.0058276532000000    0.0008300306800000
   0.0000000000000000    0.0000000000000000    0.0000000000000000
   0.0000000000000000    0.0000000000000000    0.0000000000000000
   0.0000000000000000    0.0000000000000000    0.0000000000000000
   0.0000000000000000    0.0000000000000000    0.0000000000000000
