ALGO = All
EDIFF = 1e-05
EDIFFG = -0.02
ENAUG = 1360
ENCUT = 680
GGA = Pe
HFSCREEN = 0.2
IBRION = 2
ISIF = 3
ISMEAR = -5
ISPIN = 2
KSPACING = 0.5
LAECHG = True
LASPH = True
LCHARG = True
LELF = True
LHFCALC = True
LMIXTAU = True
LORBIT = 11
LREAL = Auto
LVTOT = True
LWAVE = False
MAGMOM = 2*0.6
NCORE = 4
NELM = 200
NSW = 1
PREC = Accurate
PRECFOCK = Fast
SIGMA = 0.05
