Si2
1.0
3.348898 0.000000 1.933487
1.116299 3.157372 1.933487
0.000000 0.000000 3.866975
Si
2
direct
0.245521 0.250000 0.252240 Si
0.000000 0.000000 0.000000 Si
