ALGO = Normal
EDIFF = 1e-06
ENAUG = 1360
ENCUT = 680
ISMEAR = -5
ISPIN = 2
KPAR = 2
KSPACING = 0.22
LAECHG = False
LASPH = True
LCHARG = False
LELF = False
LMAXMIX = 6
LMIXTAU = True
LORBIT = 11
LREAL = False
LVTOT = False
LWAVE = False
MAGMOM = 2*-0.0
NCORE = 16
NELM = 200
NSW = 0
PREC = Accurate
SIGMA = 0.05
