Si2
1.0
   3.5163646258693375    0.0000000000000000    2.0301737770561954
   1.1721215419564459    3.3152616772421761    2.0301737770561954
   0.0000000000000000    0.0000000000000000    4.0603475541123908
Si
2
direct
   0.8750000000000000    0.8750000000000000    0.8750000000000000 Si
   0.1250000000000000    0.1250000000000000    0.1250000000000000 Si
