pymatgen with grid density = 791 / number of atoms
0
Gamma
7 7 7
