ALGO = Normal
EDIFF = 1e-07
ENAUG = 1360.0
ENCUT = 680.0
GGA = Ps
ICHARG = 11
ISMEAR = -5
ISPIN = 1
ISYM = 0
LAECHG = False
LASPH = True
LCHARG = False
LELF = False
LMIXTAU = True
LORBIT = 11
LREAL = False
LVTOT = False
LWAVE = True
NBANDS = 8
NEDOS = 1100
NELM = 200
NPAR = 4
NSW = 0
PREC = Accurate
SIGMA = 0.05
