pymatgen with grid density = 4941 / number of atoms
0
Gamma
13 13 13
