Au108 O1
1.0
12.088425 0.007655 0.000000
0.007655 12.088425 0.000000
0.000000 0.000000 35.202569
Au O
108 1
direct
-0.000232 0.000114 0.342987 Au
-0.000023 0.333356 0.342731 Au
-0.000306 0.666519 0.343010 Au
0.333583 -0.000250 0.342835 Au
0.333219 0.333565 0.342987 Au
0.333332 0.666806 0.343302 Au
0.666528 0.000001 0.343302 Au
0.666815 0.333639 0.343010 Au
0.666688 0.666646 0.342810 Au
0.166417 0.166917 0.342835 Au
0.166668 0.499861 0.343302 Au
0.166781 0.833101 0.342987 Au
0.500232 0.166553 0.342987 Au
0.500306 0.500148 0.343010 Au
0.500023 0.833310 0.342731 Au
0.833472 0.166666 0.343302 Au
0.833312 0.500021 0.342810 Au
0.833185 0.833027 0.343010 Au
0.000184 0.166679 0.405560 Au
-0.000094 0.499823 0.405458 Au
0.000253 0.833586 0.405580 Au
0.333130 0.166464 0.405413 Au
0.333220 0.499799 0.405417 Au
0.333345 0.833517 0.405560 Au
0.666466 0.166554 0.405417 Au
0.666572 0.499905 0.405573 Au
0.666490 0.833239 0.405458 Au
0.166870 0.000203 0.405413 Au
0.166655 0.333149 0.405560 Au
0.166780 0.666868 0.405417 Au
0.499816 -0.000012 0.405560 Au
0.499747 0.333080 0.405580 Au
0.500094 0.666844 0.405458 Au
0.833534 0.000113 0.405417 Au
0.833510 0.333427 0.405458 Au
0.833428 0.666762 0.405573 Au
-0.000374 0.000173 0.468380 Au
-0.000163 0.333496 0.468198 Au
0.000137 0.666252 0.468081 Au
0.333504 -0.000171 0.468351 Au
0.333160 0.333707 0.468380 Au
0.333246 0.666122 0.468272 Au
0.667212 0.000087 0.468272 Au
0.667082 0.333196 0.468081 Au
0.666732 0.666602 0.468007 Au
0.166496 0.166838 0.468351 Au
0.166754 0.500545 0.468272 Au
0.166840 0.832959 0.468380 Au
0.500374 0.166494 0.468380 Au
0.499863 0.500415 0.468081 Au
0.500163 0.833170 0.468198 Au
0.832788 0.166580 0.468272 Au
0.833268 0.500065 0.468007 Au
0.832918 0.833470 0.468081 Au
-0.000096 0.166409 0.532012 Au
-0.000141 0.499836 0.531999 Au
-0.000640 0.832693 0.531898 Au
0.333693 0.167027 0.531910 Au
0.333637 0.499476 0.532243 Au
0.333075 0.833237 0.532012 Au
0.666143 0.166971 0.532243 Au
0.667004 0.500337 0.531892 Au
0.666503 0.833192 0.531999 Au
0.166307 -0.000360 0.531910 Au
0.166925 0.333429 0.532012 Au
0.166363 0.667191 0.532243 Au
0.500096 0.000258 0.532012 Au
0.500640 0.333973 0.531898 Au
0.500141 0.666831 0.531999 Au
0.833857 -0.000304 0.532243 Au
0.833497 0.333474 0.531999 Au
0.832996 0.666330 0.531892 Au
0.003009 0.001133 0.595642 Au
0.000754 0.332579 0.594376 Au
0.000723 0.666754 0.594281 Au
0.331713 0.001620 0.595402 Au
0.332200 0.330324 0.595642 Au
0.332163 0.667326 0.594284 Au
0.666008 0.001170 0.594284 Au
0.666580 0.332610 0.594281 Au
0.666590 0.666744 0.594419 Au
0.168287 0.165047 0.595402 Au
0.167837 0.499341 0.594284 Au
0.167800 0.836342 0.595642 Au
0.496991 0.165534 0.595642 Au
0.499277 0.499913 0.594281 Au
0.499246 0.834087 0.594376 Au
0.833992 0.165497 0.594284 Au
0.833410 0.499923 0.594419 Au
0.833420 0.834056 0.594281 Au
-0.002625 0.168964 0.656813 Au
-0.000895 0.500920 0.656869 Au
-0.002202 0.831131 0.656294 Au
0.340779 0.174113 0.662343 Au
0.333430 0.500811 0.656914 Au
0.335630 0.830708 0.656813 Au
0.667478 0.166764 0.656914 Au
0.666710 0.500043 0.657066 Au
0.667587 0.832438 0.656869 Au
0.159221 -0.007446 0.662343 Au
0.164370 0.335958 0.656813 Au
0.166570 0.665856 0.656914 Au
0.502625 -0.002297 0.656813 Au
0.502202 0.335535 0.656294 Au
0.500895 0.665747 0.656869 Au
0.832522 -0.000097 0.656914 Au
0.832413 0.334228 0.656869 Au
0.833290 0.666624 0.657066 Au
0.250000 0.083333 0.699859 O
