Si2
1.0
   3.3489186913041307   -0.0000000000000000    1.9334988352916145
   1.1163062304347104    3.1573920735639773    1.9334988352916145
   0.0000000000000000    0.0000000000000000    3.8669976705832290
Si
2
direct
   0.8750000000000000    0.8750000000000000    0.8750000000000000 Si
   0.1250000000000000    0.1250000000000000    0.1250000000000000 Si
