Mg3 Sb2
1.0
   2.3003714889113014   -3.9843602950772401    0.0000000000000000
   2.3003714889113014    3.9843602950772401    0.0000000000000000
   0.0000000000000000    0.0000000000000000    7.2813299999999996
Mg Sb
3 2
direct
   0.0000000000000000    0.0000000000000000    0.0000000000000000 Mg
   0.3333333333333333    0.6666666666666666    0.3683249999999999 Mg
   0.6666666666666667    0.3333333333333334    0.6316750000000001 Mg
   0.3333333333333333    0.6666666666666666    0.7747489999999999 Sb
   0.6666666666666667    0.3333333333333334    0.2252510000000001 Sb
