ALGO = Fast
EDIFF = 1e-07
ENAUG = 1360.0
ENCUT = 680.0
GGA = Ps
ISMEAR = -5
ISPIN = 2
LAECHG = True
LASPH = True
LCHARG = True
LDAU = True
LDAUJ = 0 0 0
LDAUL = 0 2 0
LDAUPRINT = 1
LDAUTYPE = 2
LDAUU = 0 3.9 0
LELF = False
LMAXMIX = 4
LMIXTAU = True
LORBIT = 11
LREAL = False
LVTOT = True
LWAVE = False
MAGMOM = 2*-0.0 2*-3.806 2*3.806 2*-0.039 1*0.039 1*-0.039 1*0.039 1*-0.039 2*0.039
NELM = 200
NSW = 0
PREC = Accurate
SIGMA = 0.05
