Mg2 Mn4 O8
1.0
  -1.4134749544772500    4.8851318875074039   -2.6615688416227865
  -0.0049004986004434   -0.0064997088868317    6.1494648899885469
   5.0854959019673869   -0.0121921293214673   -2.6615702914822061
Mg Mn O
2 4 8
direct
   0.6250177427242132    0.7499998952804642    0.3749818770097100 Mg
   0.3749822572757868    0.2500001047195358    0.6250181229902900 Mg
  -0.0000000000000000    0.5000000000000000    0.5000000000000000 Mn
  -0.0000000000000000   -0.0000000000000000    0.0000000000000000 Mn
  -0.0000000000000000    0.5000000000000000    0.0000000000000000 Mn
   0.5000000000000000   -0.0000000000000000    0.0000000000000000 Mn
   0.7783487146233745    0.5095421654445897    0.7548271973998141 O
   0.2452555980671230    0.9904261541048694    0.7687992902150146 O
   0.2451729015097585    0.9904581224981112    0.2216514877768520 O
   0.2216512853766253    0.4904578345554103    0.2451728026001859 O
   0.7687992353080364    0.4904259676412834    0.2452554534283477 O
   0.7547444019328770    0.0095738458951307    0.2312007097849854 O
   0.2312007646919633    0.5095740323587166    0.7547445465716525 O
   0.7548270984902415    0.0095418775018887    0.7783485122231479 O
