Mg2 Mn4 O8
1.0
  -1.4153143978007576    4.8873530309507336   -2.6621845623367690
  -0.0060458003539574   -0.0080237762515674    6.1487007044138791
   5.0881392423764504   -0.0133459921920596   -2.6621827803065692
Mg Mn O
2 4 8
direct
   0.6250147967786780    0.7499999695448639    0.3749851808676931 Mg
   0.3749852032213220    0.2500000304551362    0.6250148191323068 Mg
   0.0000000000000000    0.5000000000000000    0.5000000000000000 Mn
   0.0000000000000000    0.0000000000000000    0.0000000000000000 Mn
   0.0000000000000000    0.5000000000000000    0.0000000000000000 Mn
   0.5000000000000000    0.0000000000000000    0.0000000000000000 Mn
   0.7783735039866422    0.5096017123466163    0.7548692610779949 O
   0.2452370692055703    0.9903651765184001    0.7687646713865669 O
   0.2451306316118980    0.9903982258697611    0.2216265626335412 O
   0.2216264960133580    0.4903982876533835    0.2451307389220050 O
   0.7687645556212022    0.4903651880873799    0.2452369996114130 O
   0.7547629307944298    0.0096348234815997    0.2312353286134332 O
   0.2312354443787979    0.5096348119126202    0.7547630003885871 O
   0.7548693683881019    0.0096017741302388    0.7783734373664588 O
