O1
1.0
  10.0000000000000000    0.0000000000000000    0.0000000000000006
  -0.0000000000000006   10.0000000000000000    0.0000000000000006
   0.0000000000000000    0.0000000000000000   10.0000000000000000
O
1
direct
   0.5000000000000000    0.5000000000000000    0.4999999999999999 O
