pymatgen with grid density = 122 / number of atoms
0
Gamma
1 1 1
