ALGO = Normal
EDIFF = 0.0001
ENCUT = 520
GGA = Rp
IBRION = 2
ISIF = 2
ISMEAR = 0
ISPIN = 2
LASPH = True
LORBIT = 11
LREAL = Auto
LWAVE = False
MAGMOM = 109*0.6
NCORE = 18
NELM = 100
NPAR = 8
NSW = 99
PREC = Accurate
SIGMA = 0.05
