Au108 O1
1.0
12.112643 0.000000 0.000000
0.000000 12.112643 0.000000
0.000000 0.000000 35.059114
Au O
108 1
direct
0.000000 0.000212 0.342997 Au
0.000000 0.333121 0.342997 Au
0.000000 0.666667 0.343489 Au
0.333339 -0.000014 0.343112 Au
0.333339 0.333347 0.343112 Au
0.333264 0.666667 0.343051 Au
0.666661 -0.000014 0.343112 Au
0.666661 0.333347 0.343112 Au
0.666736 0.666667 0.343051 Au
0.166455 0.166667 0.342997 Au
0.166681 0.500006 0.343112 Au
0.166681 0.833327 0.343112 Au
0.500000 0.166667 0.343489 Au
0.500000 0.499931 0.343051 Au
0.500000 0.833402 0.343051 Au
0.833545 0.166667 0.342997 Au
0.833319 0.500006 0.343112 Au
0.833319 0.833327 0.343112 Au
0.000000 0.166667 0.405297 Au
0.000000 0.499944 0.405526 Au
0.000000 0.833389 0.405526 Au
0.333277 0.166667 0.405526 Au
0.333299 0.499966 0.405725 Au
0.333299 0.833367 0.405725 Au
0.666723 0.166667 0.405526 Au
0.666701 0.499966 0.405725 Au
0.666701 0.833367 0.405725 Au
0.166649 0.000018 0.405605 Au
0.166649 0.333315 0.405605 Au
0.166588 0.666667 0.405552 Au
0.500000 0.000079 0.405552 Au
0.500000 0.333254 0.405552 Au
0.500000 0.666667 0.405821 Au
0.833351 0.000018 0.405605 Au
0.833351 0.333315 0.405605 Au
0.833412 0.666667 0.405552 Au
0.000000 0.000094 0.468330 Au
0.000000 0.333239 0.468330 Au
0.000000 0.666667 0.468105 Au
0.333708 0.000122 0.468114 Au
0.333708 0.333211 0.468114 Au
0.333121 0.666667 0.467978 Au
0.666292 0.000122 0.468114 Au
0.666292 0.333211 0.468114 Au
0.666879 0.666667 0.467978 Au
0.166573 0.166667 0.468330 Au
0.166545 0.500375 0.468114 Au
0.166545 0.832958 0.468114 Au
0.500000 0.166667 0.468105 Au
0.500000 0.499788 0.467978 Au
0.500000 0.833545 0.467978 Au
0.833427 0.166667 0.468330 Au
0.833455 0.500375 0.468114 Au
0.833455 0.832958 0.468114 Au
0.000000 0.166667 0.531892 Au
0.000000 0.499834 0.532076 Au
0.000000 0.833499 0.532076 Au
0.333167 0.166667 0.532076 Au
0.333375 0.500042 0.532005 Au
0.333375 0.833291 0.532005 Au
0.666833 0.166667 0.532076 Au
0.666625 0.500042 0.532005 Au
0.666625 0.833291 0.532005 Au
0.167225 -0.000558 0.531873 Au
0.167225 0.333891 0.531873 Au
0.166896 0.666667 0.532324 Au
0.500000 -0.000229 0.532324 Au
0.500000 0.333562 0.532324 Au
0.500000 0.666667 0.531874 Au
0.832775 -0.000558 0.531873 Au
0.832775 0.333891 0.531873 Au
0.833104 0.666667 0.532324 Au
0.000000 0.002818 0.594388 Au
0.000000 0.330515 0.594388 Au
0.000000 0.666667 0.594105 Au
0.332781 0.000689 0.594540 Au
0.332781 0.332644 0.594540 Au
0.333348 0.666667 0.594399 Au
0.667219 0.000689 0.594540 Au
0.667219 0.332644 0.594540 Au
0.666652 0.666667 0.594399 Au
0.163849 0.166667 0.594388 Au
0.165978 0.499448 0.594540 Au
0.165978 0.833885 0.594540 Au
0.500000 0.166667 0.594105 Au
0.500000 0.500015 0.594399 Au
0.500000 0.833318 0.594399 Au
0.836151 0.166667 0.594388 Au
0.834022 0.499448 0.594540 Au
0.834022 0.833885 0.594540 Au
0.000000 0.166667 0.658669 Au
0.000000 0.501449 0.656608 Au
0.000000 0.831884 0.656608 Au
0.334782 0.166667 0.656608 Au
0.333294 0.499961 0.656642 Au
0.333294 0.833372 0.656642 Au
0.665218 0.166667 0.656608 Au
0.666706 0.499961 0.656642 Au
0.666706 0.833372 0.656642 Au
0.169942 -0.003275 0.656688 Au
0.169942 0.336608 0.656688 Au
0.166886 0.666667 0.656816 Au
0.500000 -0.000219 0.656816 Au
0.500000 0.333552 0.656816 Au
0.500000 0.666667 0.656774 Au
0.830058 -0.003275 0.656688 Au
0.830058 0.336608 0.656688 Au
0.833114 0.666667 0.656816 Au
0.000000 0.166667 0.713963 O
