Si8
1.0
   5.7048647662555423    0.0000000000000000    0.0000000000000003
   0.0000000000000009    5.7048647662555423    0.0000000000000003
   0.0000000000000000    0.0000000000000000    5.7048647662555423
Si
8
direct
   0.6912988575051805    0.8187946998575717    0.2231121107558160 Si
   0.9422665461988877    0.5163499906917052    0.4297858605793313 Si
   0.7376610039000390    0.1920573299581615    0.8445500040416879 Si
   0.1703194020227032    0.8815247677237844    0.1030515615569322 Si
   0.2698708338728604    0.7214697583644113    0.6502806461921808 Si
   0.4665731248300861    0.5364613062077146    1.0027164479946060 Si
   0.2340376878421350    0.3017691407473183    0.2507115340409132 Si
   0.4879725318281080    0.0315729994493329    0.4957918368385322 Si

  -0.0046466673000000    0.0039038412000000   -0.0056234382000000
   0.0029527080000000    0.0040531889000000   -0.0043508527000000
  -0.0087415134000000   -0.0022921939000000    0.0037712932000000
   0.0093009217000000   -0.0061645651000000    0.0061036816000000
   0.0008583363400000   -0.0020648125000000   -0.0012919761000000
  -0.0003201996300000    0.0023631060000000    0.0020733554000000
   0.0006755901900000   -0.0014658284000000   -0.0018252304000000
  -0.0000791760080000    0.0016672638000000    0.0011431672000000

1
   2.00000000000000     
  0.13347492E+01  0.18052239E+00  0.18301505E+00  0.11529805E+01
   0.6896698400000000    0.8201633000000000    0.2211406600000000
   0.9433017000000000    0.5177709500000000    0.4282605500000000
   0.7345964200000000    0.1912537400000000    0.8458721400000000
   0.1735801000000000    0.8793636100000000    0.1051913800000000
   0.2701717500000000    0.7207458799999999    0.6498277099999999
   0.4664608700000000    0.5372897599999999    0.0034433208000000
   0.2342745300000000    0.3012552500000000    0.2500716500000000
   0.4879447700000000    0.0321575050000000    0.4961926100000000
   0.0000000000000000    0.0000000000000000    0.0000000000000000
   0.0000000000000000    0.0000000000000000    0.0000000000000000
   0.0000000000000000    0.0000000000000000    0.0000000000000000
   0.0000000000000000    0.0000000000000000    0.0000000000000000
   0.0000000000000000    0.0000000000000000    0.0000000000000000
   0.0000000000000000    0.0000000000000000    0.0000000000000000
   0.0000000000000000    0.0000000000000000    0.0000000000000000
   0.0000000000000000    0.0000000000000000    0.0000000000000000
   0.0000000000000000    0.0000000000000000    0.0000000000000000
   0.0000000000000000    0.0000000000000000    0.0000000000000000
   0.0000000000000000    0.0000000000000000    0.0000000000000000
   0.0000000000000000    0.0000000000000000    0.0000000000000000
   0.0000000000000000    0.0000000000000000    0.0000000000000000
   0.0000000000000000    0.0000000000000000    0.0000000000000000
   0.0000000000000000    0.0000000000000000    0.0000000000000000
   0.0000000000000000    0.0000000000000000    0.0000000000000000
