pymatgen with grid density = 1 / number of atoms
0
Gamma
1 1 1
