Na1 Cl1
1.0
   3.4272114191776613   -0.0000000004538240    1.9787021552598860
   1.1424031382856674    3.2312052273111243    1.9787021552598854
   0.0000000017534421    0.0000000012398707    3.9574023044456696
Na Cl
1 1
direct
   0.0000000000000000    0.0000000000000000    0.0000000000000000 Na
   0.5000000000000000    0.5000000000000000    0.5000000000000000 Cl

   0.0000000000000000    0.0000000000000000    0.0000000000000000
   0.0000000000000000    0.0000000000000000    0.0000000000000000
