ENCUT = 500
PREC = ACCURATE
EDIFF = 1.0E-5
IBRION = 2
ISIF = 3
NSW = 300
EDIFFG = -0.01
NELM = 300
ISMEAR = 0
SIGMA = 0.05
NPAR = 16
LWAVE = .FALSE.
LCHARG = .FALSE.
