Au4
1.0
4.171288 0.000000 0.000000
0.000000 4.171288 0.000000
0.000000 0.000000 4.171288
Au
4
direct
0.000000 0.000000 0.000000 Au
0.000000 0.500000 0.500000 Au
0.500000 0.000000 0.500000 Au
0.500000 0.500000 0.000000 Au
