ALGO = Fast
EDIFF = 1e-05
EDIFFG = -0.02
ENAUG = 1360.0
ENCUT = 680.0
IBRION = 2
ISIF = 3
ISMEAR = -5
ISPIN = 2
LAECHG = True
LASPH = True
LCHARG = False
LELF = True
LMIXTAU = True
LORBIT = 11
LREAL = False
LVTOT = True
LWAVE = False
MAGMOM = 2*-0.0
NELM = 200
NSW = 99
PREC = Accurate
SIGMA = 0.05
