ALGO = Fast
EDIFF = 1e-05
EDIFFG = -0.005
ENAUG = 1360
ENCUT = 680
GGA = Ps
IBRION = 2
ISIF = 2
ISMEAR = 2
ISPIN = 2
KSPACING = 0.22
LAECHG = True
LASPH = True
LCHARG = False
LELF = False
LMIXTAU = True
LORBIT = 11
LREAL = False
LVTOT = True
LWAVE = False
MAGMOM = 7*0.6
NELECT = 28.0
NELM = 200
NSW = 99
PREC = Accurate
SIGMA = 0.2
