#===============================================================================
# Created using the Atomic Simulation Environment (ASE)

# Thu Sep 28 15:01:19 2023

#=======================================================
lattice_vector 0.0000000000000004 2.7149999999999999 2.7149999999999999 
lattice_vector 2.7149999999999999 0.0000000000000000 2.7149999999999999 
lattice_vector 2.7150000000000003 2.7149999999999999 0.0000000000000003 
atom_frac 0.5000000000000000 0.5000000000000000 0.5000000000000000 Si
atom_frac 0.7500000000000000 0.7499999999999997 0.7500000000000000 Si
