Mg6 Sb4
   1.0000000000000000
     0.0000000000000000   -7.9687205901544802    0.0000000000000000
     4.6007429778226028    0.0000000000000000    0.0000000000000000
     0.0000000000000000    0.0000000000000000    7.2813299999999996
   Mg   Sb
     6     4
Direct
  0.0000000000000000  0.0000000000000000  0.0000000000000000
  0.5000000000000000  0.5000000000000000  0.0000000000000000
  0.8333333333333357  0.5000000000000000  0.3696983754684950
  0.3333333333333357  0.0000000000000000  0.3683249999999987
  0.1666666666666643  0.5000000000000000  0.6316750000000013
  0.6666666666666643  0.0000000000000000  0.6316750000000013
  0.8333333333333357  0.5000000000000000  0.7747489999999999
  0.3333333333333357  0.0000000000000000  0.7747489999999999
  0.1666666666666643  0.5000000000000000  0.2252510000000001
  0.6666666666666643  0.0000000000000000  0.2252510000000001

  0.00000000E+00  0.00000000E+00  0.00000000E+00
  0.00000000E+00  0.00000000E+00  0.00000000E+00
  0.00000000E+00  0.00000000E+00  0.00000000E+00
  0.00000000E+00  0.00000000E+00  0.00000000E+00
  0.00000000E+00  0.00000000E+00  0.00000000E+00
  0.00000000E+00  0.00000000E+00  0.00000000E+00
  0.00000000E+00  0.00000000E+00  0.00000000E+00
  0.00000000E+00  0.00000000E+00  0.00000000E+00
  0.00000000E+00  0.00000000E+00  0.00000000E+00
  0.00000000E+00  0.00000000E+00  0.00000000E+00
