ALGO = All
EDIFF = 1e-05
EDIFFG = -0.1
ENAUG = 1360
ENCUT = 680
IBRION = 2
ISIF = 2
ISMEAR = 0
ISPIN = 2
LAECHG = True
LASPH = True
LCHARG = True
LELF = False
LMIXTAU = True
LORBIT = 11
LREAL = Auto
LVTOT = True
LWAVE = True
MAGMOM = 4*0.6
METAGGA = R2scan
NCORE = 12
NELM = 200
NGX = 18
NGY = 18
NGZ = 60
NSW = 99
PREC = Accurate
SIGMA = 0.2
