Mg1 Ga15 N16
1.0
-6.4325799999999997 -0.0000000000000000 -0.0000000000000000
-0.0000000000000000 11.1415559999999996 -0.0000000000000000
-0.0000000000000000 -0.0000000000000000 -5.2399620000000002
Mg Ga N
1 15 16
direct
0.2500000000000000 0.0833335000000000 0.4991200000000000 Mg
0.2500000000000000 0.5833335000000001 0.4991200000000000 Ga
0.5000000000000000 0.3333335000000000 0.4991200000000000 Ga
0.7500000000000000 0.0833335000000000 0.4991200000000000 Ga
0.5000000000000000 0.8333335000000001 0.4991200000000000 Ga
0.7500000000000000 0.5833335000000001 0.4991200000000000 Ga
0.0000000000000000 0.3333335000000000 0.4991200000000000 Ga
0.0000000000000000 0.8333335000000001 0.4991200000000000 Ga
0.2500000000000000 0.9166665000000001 0.9991199999999999 Ga
0.2500000000000000 0.4166665000000000 0.9991199999999999 Ga
0.5000000000000000 0.1666665000000000 0.9991199999999999 Ga
0.7500000000000000 0.9166665000000001 0.9991199999999999 Ga
0.5000000000000000 0.6666664999999999 0.9991199999999999 Ga
0.7500000000000000 0.4166665000000000 0.9991199999999999 Ga
0.0000000000000000 0.1666665000000000 0.9991199999999999 Ga
0.0000000000000000 0.6666664999999999 0.9991199999999999 Ga
0.2500000000000000 0.0833335000000000 0.8758800000000000 N
0.2500000000000000 0.5833335000000001 0.8758800000000000 N
0.5000000000000000 0.3333335000000000 0.8758800000000000 N
0.7500000000000000 0.0833335000000000 0.8758800000000000 N
0.5000000000000000 0.8333335000000001 0.8758800000000000 N
0.7500000000000000 0.5833335000000001 0.8758800000000000 N
0.0000000000000000 0.3333335000000000 0.8758800000000000 N
0.0000000000000000 0.8333335000000001 0.8758800000000000 N
0.2500000000000000 0.9166665000000001 0.3758800000000000 N
0.2500000000000000 0.4166665000000000 0.3758800000000000 N
0.5000000000000000 0.1666665000000000 0.3758800000000000 N
0.7500000000000000 0.9166665000000001 0.3758800000000000 N
0.5000000000000000 0.6666664999999999 0.3758800000000000 N
0.7500000000000000 0.4166665000000000 0.3758800000000000 N
0.0000000000000000 0.1666665000000000 0.3758800000000000 N
0.0000000000000000 0.6666664999999999 0.3758800000000000 N
