0.                                      
   1.00000000000000     
     3.3488980000000002    0.0000000000000000    1.9334870000000000
     1.1162989999999999    3.1573720000000001    1.9334870000000000
     0.0000000000000000    0.0000000000000000    3.8669750000000001
   Si
     2
Direct
  0.2508478265368021  0.2378053093051050  0.2521324810728720
 -0.0008478265368021  0.0121946906948951 -0.0021324810728719
