100.                                    
   1.00000000000000     
     3.3488980000000002    0.0000000000000000    1.9334870000000000
     1.1162989999999999    3.1573720000000001    1.9334870000000000
     0.0000000000000000    0.0000000000000000    3.8669750000000001
   Si
     2
Direct
  0.2508484271310701  0.2377966705620982  0.2521339917266132
 -0.0008484271310702  0.0122033294379019 -0.0021339917266131
