Si7
1.0
3.9773040000000002 0.0000000000000000 0.0000000000000000
0.0000000000000000 3.9773040000000002 0.0000000000000000
0.0000000000000000 0.0000000000000000 9.3869399999999992
Si
7
direct
0.0000000000000000 0.0000000000000000 0.0465166100000000 Si
0.5000000000000000 0.5000000000000000 0.4534833900000000 Si
0.5000000000000000 0.0000000000000000 0.2500000000000000 Si
0.5000000000000000 0.5000000000000000 0.0465166100000000 Si
0.5000000000000000 0.0000000000000000 0.7500000000000000 Si
0.0000000000000000 0.5000000000000000 0.7500000000000000 Si
0.0000000000000000 0.0000000000000000 0.4534833900000000 Si
