Si2                                     
   1.00000000000000     
     3.3488980000000002    0.0000000000000000    1.9334870000000000
     1.1162989999999999    3.1573720000000001    1.9334870000000000
     0.0000000000000000    0.0000000000000000    3.8669750000000001
   Si
     2
Direct
  0.2456281213945341  0.2511480576988799  0.2525863802147101
  0.0043718786054659 -0.0011480576988799 -0.0025863802147101
 
 -0.30575305E-02  0.83184465E-03  0.85625228E-03
  0.30575305E-02 -0.83184465E-03 -0.85625228E-03
 
           1
   2.00000000000000     
 -0.24436602E-02 -0.32024948E-02 -0.84241769E-03 -0.42120396E-03
  0.24362649E+00  0.25167498E+00  0.25376659E+00
  0.63735113E-02  0.99832502E+00  0.99623341E+00
  0.00000000E+00  0.00000000E+00  0.00000000E+00
  0.00000000E+00  0.00000000E+00  0.00000000E+00
  0.00000000E+00  0.00000000E+00  0.00000000E+00
  0.00000000E+00  0.00000000E+00  0.00000000E+00
