Si7                                     
   1.00000000000000     
     5.4378483500000003    0.0000000000000000    0.0000000000000000
     0.0000000000000000    5.4378483500000003    0.0000000000000000
     0.0000000000000000    0.0000000000000000    5.4378483500000003
   Si
     7
Direct
  0.2460791219999976  0.7539208780000024  0.2460791219999976
  0.0000000000000000  0.0000000000000000  0.5000000000000000
  0.2460791219999976  0.2460791219999976  0.7539208780000024
  0.0000000000000000  0.5000000000000000  0.0000000000000000
  0.7539208780000024  0.7539208780000024  0.7539208780000024
  0.5000000000000000  0.0000000000000000  0.0000000000000000
  0.7539208780000024  0.2460791219999976  0.2460791219999976
 
  0.00000000E+00  0.00000000E+00  0.00000000E+00
  0.00000000E+00  0.00000000E+00  0.00000000E+00
  0.00000000E+00  0.00000000E+00  0.00000000E+00
  0.00000000E+00  0.00000000E+00  0.00000000E+00
  0.00000000E+00  0.00000000E+00  0.00000000E+00
  0.00000000E+00  0.00000000E+00  0.00000000E+00
  0.00000000E+00  0.00000000E+00  0.00000000E+00
