
! Parameters needed to calculate energy and forces
! and describe the system you want to analyze.
&FORCE_EVAL
	METHOD QS
	STRESS_TENSOR ANALYTICAL

	! A subsystem: coordinates, topology, molecules
	! and cell
	&SUBSYS

		! Lattice parameters and optional settings for
		! creating a the CELL
		&CELL
			A 0.0 2.734364 2.734364
			B 2.734364 0.0 2.734364
			C 5.468728 5.468728 0.0
		&END CELL

		! The description of this kind of atom including
		! basis sets, element, etc.
		&KIND Si_1
			ELEMENT Si
			MAGNETIZATION 0.0
			BASIS_SET SZV-MOLOPT-GTH-q4
			POTENTIAL GTH-PBE-q4
			GHOST False
		&END KIND

		! The coordinates for simple systems (like small
		! QM cells) are specified here by default using
		! explicit XYZ coordinates. More complex systems
		! should be given via an external coordinate
		! file in the SUBSYS%TOPOLOGY section.
		&COORD
			Si_1 1.367182 1.367182 1.367182
			Si_1 4.101546000000001 4.101546000000001 1.367182
			Si_1 0.0 0.0 0.0
			Si_1 2.734364 2.734364 0.0
		&END COORD
	&END SUBSYS
	&PRINT
		&FORCES
		&END FORCES
		&STRESS_TENSOR
		&END STRESS_TENSOR
	&END PRINT

	! Parameter needed by dft programs
	&DFT
		BASIS_SET_FILE_NAME BASIS_MOLOPT
		BASIS_SET_FILE_NAME BASIS_MOLOPT_UCL
		POTENTIAL_FILE_NAME GTH_POTENTIALS
		UKS True ! Whether to run unrestricted Kohn Sham (i.e. spin polarized)
		MULTIPLICITY 0
		CHARGE 0

		! Parameters needed to set up the Quickstep
		! framework
		&QS
			METHOD GPW
			EPS_DEFAULT 1e-12 ! Base precision level (in Ha)
			EXTRAPOLATION ASPC ! WFN extrapolation between steps
		&END QS

		! Parameters needed to perform an SCF run.
		&SCF
			MAX_SCF 400 ! Max number of steps for an inner SCF loop
			EPS_SCF 1 ! Convergence threshold for SCF
			SCF_GUESS RESTART ! How to initialize the density matrix
			MAX_ITER_LUMO 400 ! Iterations for solving for unoccupied levels when running OT
			MAX_DIIS 15
			ADDED_MOS -1 -1
			&DIAGONALIZATION
			&END DIAGONALIZATION
			&MIXING
				ALPHA 0.05
				BETA 0.01
				NBUFFER 10
				N_SIMPLE_MIX 3
				METHOD BROYDEN_MIXING
			&END MIXING

			! Activates smearing of electron occupations
			&SMEAR
				ELEC_TEMP 300
				METHOD FERMI_DIRAC
				FIXED_MAGNETIC_MOMENT -100.0
			&END SMEAR
		&END SCF

		! Multigrid information. Multigrid allows for
		! sharp gaussians and diffuse gaussians to be
		! treated on different grids, where the spacing
		! of FFT integration points can be tailored to
		! the degree of sharpness/diffusiveness
		&MGRID
			CUTOFF 150.0 ! Cutoff in [Ry] for finest level of the MG.
			REL_CUTOFF 50 ! Controls which gaussians are mapped to which level of the MG
			NGRIDS 5 ! Number of grid levels in the MG
			PROGRESSION_FACTOR 3
		&END MGRID

		! Sets up the kpoints
		&KPOINTS
			SCHEME GAMMA
			EPS_GEO 1e-06
			FULL_GRID False
			PARALLEL_GROUP_SIZE -1
			SYMMETRY False
			UNITS B_VECTOR
			VERBOSE True
			WAVEFUNCTIONS COMPLEX
		&END KPOINTS
		&XC
			&XC_FUNCTIONAL
				&PBE
				&END PBE
			&END XC_FUNCTIONAL
		&END XC
		&PRINT
		&END PRINT
	&END DFT
&END FORCE_EVAL

! Section with general information regarding which
! kind of simulation to perform an general
! settings
&GLOBAL
	PROJECT_NAME CP2K
	RUN_TYPE ENERGY_FORCE
	EXTENDED_FFT_LENGTHS True
&END GLOBAL
