#===============================================================================
# Created using the Atomic Simulation Environment (ASE)

# Thu Oct  5 08:36:15 2023

#=======================================================
lattice_vector 5.4779882200000003 0.0000000400000002 0.0000000400000003 
lattice_vector -0.0000000400000009 5.4779881199999991 -0.0000000200000003 
lattice_vector -0.0000000199999991 -0.0000000200000003 5.4779881199999991 
atom_frac 0.0018254876787596 0.0000000000000000 0.0000000018254877 Si
atom_frac 0.0000000000000000 0.4999999999999998 0.5000000018254879 Si
atom_frac 0.4999999999999999 0.0000000000000000 0.5000000018254879 Si
atom_frac 0.4999999999999999 0.5000000000000000 0.0000000018254878 Si
atom_frac 0.2499999999999999 0.2500000009127439 0.2499999990872561 Si
atom_frac 0.2500000000000000 0.7500000009127437 0.7499999990872562 Si
atom_frac 0.7499999999999998 0.2500000009127439 0.7499999990872561 Si
atom_frac 0.7499999999999998 0.7500000009127437 0.2499999990872561 Si
