#===============================================================================
# Created using the Atomic Simulation Environment (ASE)

# Thu Oct  5 08:35:53 2023

#=======================================================
lattice_vector -0.0000000300000000 2.7389940500000001 2.7389940500000001 
lattice_vector 2.7389941000000002 0.0000000100000000 2.7389940799999999 
lattice_vector 2.7389940899999998 2.7389940799999999 0.0000000100000000 
atom_frac 0.0000000018254877 0.0000000018254877 -0.0000000018254877 Si
atom_frac 0.2500000000000001 0.2499999981745122 0.2500000018254876 Si
