ALGO = Normal
EDIFF = 1e-05
ENAUG = 1360
ENCUT = 680
ISMEAR = -5
ISPIN = 2
KSPACING = 0.5
LAECHG = True
LASPH = True
LCHARG = True
LELF = True
LMIXTAU = True
LORBIT = 11
LREAL = Auto
LVTOT = True
LWAVE = False
MAGMOM = 4*0.6
NCORE = 4
NELM = 200
NSW = 0
PREC = Accurate
SIGMA = 0.05
