Au16 O1
1.0
   8.3927098129985858    0.0000000000000000    0.0000000000000005
   0.0000000000000013    8.3927098129985858    0.0000000000000005
   0.0000000000000000    0.0000000000000000   25.1781294389957573
Au O
16 1
direct
   0.0000000000000000    0.0000000000000000    0.4583333333333334 Au
   0.0000000000000000    0.5000000000000000    0.4583333333333334 Au
   0.5000000000000000    0.0000000000000000    0.4583333333333334 Au
   0.5000000000000000    0.5000000000000000    0.4583333333333334 Au
   0.0000000000000000    0.2500000000000000    0.5416666666666666 Au
   0.0000000000000000    0.7500000000000000    0.5416666666666666 Au
   0.4999999999999999    0.2500000000000000    0.5416666666666666 Au
   0.5000000000000000    0.7500000000000000    0.5416666666666666 Au
   0.2500000000000000    0.0000000000000000    0.5416666666666666 Au
   0.2500000000000001    0.5000000000000000    0.5416666666666666 Au
   0.7500000000000000    0.0000000000000000    0.5416666666666666 Au
   0.7500000000000000    0.5000000000000000    0.5416666666666666 Au
   0.2500000000000000    0.2500000000000000    0.4583333333333334 Au
   0.2500000000000001    0.7500000000000000    0.4583333333333334 Au
   0.7500000000000001    0.2500000000000000    0.4583333333333334 Au
   0.7500000000000000    0.7500000000000000    0.4583333333333333 Au
   0.0000000000000004    0.2500000000000002    0.6211006851804650 O
