Au108 O1
1.0
12.088596 -0.000000 -0.000000
-0.000000 12.088596 0.000000
-0.000000 0.000000 35.058309
Au O
108 1
direct
-0.000101 -0.000101 0.342842 Au
-0.000101 0.333434 0.342842 Au
-0.000149 0.666667 0.343197 Au
0.333434 -0.000101 0.342842 Au
0.333434 0.333434 0.342842 Au
0.333482 0.666667 0.343197 Au
0.666667 -0.000149 0.343197 Au
0.666667 0.333482 0.343197 Au
0.666667 0.666667 0.342584 Au
0.166667 0.166667 0.342896 Au
0.166667 0.499994 0.343154 Au
0.166667 0.833339 0.343154 Au
0.499994 0.166667 0.343154 Au
0.500230 0.500230 0.342816 Au
0.500230 0.833103 0.342816 Au
0.833339 0.166667 0.343154 Au
0.833103 0.500230 0.342816 Au
0.833103 0.833103 0.342816 Au
0.000125 0.166667 0.405390 Au
0.000073 0.499894 0.405408 Au
0.000073 0.833439 0.405408 Au
0.333208 0.166667 0.405390 Au
0.333260 0.499894 0.405408 Au
0.333260 0.833439 0.405408 Au
0.666667 0.166667 0.405429 Au
0.666667 0.500072 0.405582 Au
0.666667 0.833261 0.405582 Au
0.166667 0.000125 0.405390 Au
0.166667 0.333208 0.405390 Au
0.166667 0.666667 0.405429 Au
0.499894 0.000073 0.405408 Au
0.499894 0.333260 0.405408 Au
0.500072 0.666667 0.405582 Au
0.833439 0.000073 0.405408 Au
0.833439 0.333260 0.405408 Au
0.833261 0.666667 0.405582 Au
-0.000205 -0.000205 0.468225 Au
-0.000205 0.333538 0.468225 Au
0.000066 0.666667 0.468086 Au
0.333538 -0.000205 0.468225 Au
0.333538 0.333538 0.468225 Au
0.333267 0.666667 0.468086 Au
0.666667 0.000066 0.468086 Au
0.666667 0.333267 0.468086 Au
0.666667 0.666667 0.467881 Au
0.166667 0.166667 0.468618 Au
0.166667 0.500551 0.468461 Au
0.166667 0.832782 0.468461 Au
0.500551 0.166667 0.468461 Au
0.500038 0.500038 0.468107 Au
0.500038 0.833295 0.468107 Au
0.832782 0.166667 0.468461 Au
0.833295 0.500038 0.468107 Au
0.833295 0.833295 0.468107 Au
-0.000704 0.166667 0.531758 Au
-0.000067 0.500260 0.531958 Au
-0.000067 0.833073 0.531958 Au
0.334037 0.166667 0.531758 Au
0.333400 0.500260 0.531958 Au
0.333400 0.833073 0.531958 Au
0.666667 0.166667 0.532642 Au
0.666667 0.500246 0.531987 Au
0.666667 0.833087 0.531987 Au
0.166667 -0.000704 0.531758 Au
0.166667 0.334037 0.531758 Au
0.166667 0.666667 0.532642 Au
0.500260 -0.000067 0.531958 Au
0.500260 0.333400 0.531958 Au
0.500246 0.666667 0.531987 Au
0.833073 -0.000067 0.531958 Au
0.833073 0.333400 0.531958 Au
0.833087 0.666667 0.531987 Au
0.001595 0.001595 0.595013 Au
0.001595 0.331738 0.595013 Au
0.000962 0.666667 0.594087 Au
0.331738 0.001595 0.595013 Au
0.331738 0.331738 0.595013 Au
0.332371 0.666667 0.594087 Au
0.666667 0.000962 0.594087 Au
0.666667 0.332371 0.594087 Au
0.666667 0.666667 0.594387 Au
0.166667 0.166667 0.593842 Au
0.166667 0.496112 0.596076 Au
0.166667 0.837221 0.596076 Au
0.496112 0.166667 0.596076 Au
0.499722 0.499722 0.594534 Au
0.499722 0.833611 0.594534 Au
0.837221 0.166667 0.596076 Au
0.833611 0.499722 0.594534 Au
0.833611 0.833611 0.594534 Au
-0.003319 0.166667 0.661358 Au
0.000243 0.500053 0.656622 Au
0.000243 0.833280 0.656622 Au
0.336652 0.166667 0.661358 Au
0.333090 0.500053 0.656622 Au
0.333090 0.833280 0.656622 Au
0.666667 0.166667 0.657002 Au
0.666667 0.500235 0.657047 Au
0.666667 0.833098 0.657047 Au
0.166667 -0.003319 0.661358 Au
0.166667 0.336652 0.661358 Au
0.166667 0.666667 0.657002 Au
0.500053 0.000243 0.656622 Au
0.500053 0.333090 0.656622 Au
0.500235 0.666667 0.657047 Au
0.833280 0.000243 0.656622 Au
0.833280 0.333090 0.656622 Au
0.833098 0.666667 0.657047 Au
0.166667 0.166667 0.693013 O
