65
Lattice="8.419999999815325 0.0 0.0 0.0 8.419999999815325 0.0 0.0 0.0 8.419999999815325" Properties=species:S:1:pos:R:3 pbc="T T T"
Mg      -0.01356739      -0.01300070      -0.01300071
O        2.11604512      -0.01718593      -0.01718593
Mg      -0.01344025       2.11789476       2.11789475
O        2.11539172       2.12098414       2.12098413
Mg       2.12575116      -0.03286071       2.13738230
O        0.00041344       0.00068982       2.10430743
Mg       2.12575116       2.13738231      -0.03286072
O        0.00041344       2.10430743       0.00068981
Mg      -0.00032543      -0.00025875       4.21158778
O        2.10487658       0.00021423       4.21036291
Mg      -0.00019181       2.10517290       6.31385841
O        2.10473546       2.10458352       6.31588067
Mg       2.10511228      -0.00017823       6.31368661
O        0.00043739       0.00037032       6.31579266
Mg       2.10525075       2.10538389       4.21254174
O        0.00030743       2.10472034       4.20963814
Mg      -0.00032544       4.21158778      -0.00025875
O        2.10487658       4.21036291       0.00021423
Mg      -0.00019181       6.31385842       2.10517291
O        2.10473546       6.31588067       2.10458352
Mg       2.10525073       4.21254174       2.10538390
O        0.00030742       4.20963814       2.10472034
Mg       2.10511227       6.31368659      -0.00017822
O        0.00043739       6.31579266       0.00037031
Mg      -0.00021220       4.21031795       4.21031796
O        2.10493777       4.20967559       4.20967560
Mg      -0.00016573       6.31479544       6.31479545
O        2.10491184       6.31556905       6.31556905
Mg       2.10510556       4.21025880       6.31482872
O        0.00013613       4.20953959       6.31551594
Mg       2.10510555       6.31482871       4.21025881
O        0.00013613       6.31551594       4.20953959
Mg       4.21431656      -0.00277744      -0.00277744
O        6.31552544       0.00043321       0.00043321
Mg       4.21427449       2.10776550       2.10776551
O        6.31552245       2.10456760       2.10456759
Mg       6.31413257      -0.00016259       2.10516471
O        4.20940643       0.00080207       2.10420729
Mg       6.31413257       2.10516470      -0.00016258
O        4.20940643       2.10420729       0.00080207
Mg       4.21041173      -0.00020214       4.21065037
O        6.31538480       0.00013723       4.20946697
Mg       4.21024595       2.10516961       6.31460781
O        6.31536351       2.10486047       6.31556718
Mg       6.31487261      -0.00016219       6.31478774
O        4.20950096       0.00018752       6.31564942
Mg       6.31489501       2.10516491       4.21024718
O        4.20966447       2.10484794       4.20961551
Mg       4.21041172       4.21065037      -0.00020214
O        6.31538480       4.20946697       0.00013723
Mg       4.21024597       6.31460781       2.10516961
O        6.31536350       6.31556717       2.10486047
Mg       6.31489501       4.21024718       2.10516491
O        4.20966447       4.20961552       2.10484793
Mg       6.31487261       6.31478773      -0.00016218
O        4.20950097       6.31564942       0.00018752
Mg       4.21024775       4.21026436       4.21026436
O        6.31513115       4.20984767       4.20984766
Mg       4.21017632       6.31483014       6.31483014
O        6.31511049       6.31517217       6.31517217
Mg       6.31490280       4.21017829       6.31483899
O        4.20985539       4.20978126       6.31527094
Mg       6.31490279       6.31483899       4.21017830
O        4.20985540       6.31527093       4.20978126
Li       1.39879142       1.04965097       1.04965097
