65
Lattice="8.419999999815325 0.0 0.0 0.0 8.419999999815325 0.0 0.0 0.0 8.419999999815325" Properties=species:S:1:pos:R:3 pbc="T T T"
Mg      -0.00692832      -0.00526833      -0.00526832
O        2.09092616      -0.04513522      -0.04513521
Mg      -0.00685547       2.11025162       2.11025162
O        2.09156190       2.14693683       2.14693683
Mg       2.08698382      -0.05945756       2.16330128
O        0.00051549       0.00108031       2.10394094
Mg       2.08698381       2.16330128      -0.05945756
O        0.00051549       2.10394093       0.00108031
Mg      -0.00057881      -0.00023735       4.21106182
O        2.10499913       0.00006490       4.21157141
Mg      -0.00025967       2.10517802       6.31445452
O        2.10511825       2.10459760       6.31598663
Mg       2.10494565      -0.00019091       6.31379385
O        0.00045452       0.00023056       6.31573951
Mg       2.10482748       2.10553932       4.21373071
O        0.00013772       2.10483674       4.20978503
Mg      -0.00057881       4.21106181      -0.00023736
O        2.10499913       4.21157141       0.00006489
Mg      -0.00025966       6.31445453       2.10517800
O        2.10511824       6.31598663       2.10459760
Mg       2.10482747       4.21373071       2.10553932
O        0.00013771       4.20978503       2.10483674
Mg       2.10494564       6.31379385      -0.00019090
O        0.00045452       6.31573951       0.00023056
Mg      -0.00032091       4.21035723       4.21035724
O        2.10501987       4.20992166       4.20992166
Mg      -0.00017954       6.31483197       6.31483198
O        2.10503990       6.31558483       6.31558483
Mg       2.10495053       4.21028685       6.31488153
O        0.00012623       4.20973227       6.31536843
Mg       2.10495052       6.31488153       4.21028684
O        0.00012623       6.31536843       4.20973227
Mg       4.22114517      -0.01018173      -0.01018173
O        6.31477519       0.00044667       0.00044667
Mg       4.22098004       2.11509660       2.11509661
O        6.31476233       2.10455524       2.10455524
Mg       6.31540691      -0.00014873       2.10515230
O        4.20955925       0.00078314       2.10421213
Mg       6.31540691       2.10515231      -0.00014872
O        4.20955926       2.10421212       0.00078314
Mg       4.21047551      -0.00027317       4.21149093
O        6.31488324       0.00013825       4.20947627
Mg       4.21022701       2.10517868       6.31410639
O        6.31486149       2.10486181       6.31557381
Mg       6.31508550      -0.00016300       6.31479552
O        4.20956616       0.00031505       6.31579824
Mg       6.31510319       2.10516635       4.21025224
O        4.20980770       2.10478660       4.20978045
Mg       4.21047551       4.21149094      -0.00027318
O        6.31488324       4.20947627       0.00013825
Mg       4.21022702       6.31410638       2.10517867
O        6.31486149       6.31557381       2.10486181
Mg       6.31510319       4.21025224       2.10516635
O        4.20980771       4.20978045       2.10478660
Mg       6.31508549       6.31479551      -0.00016299
O        4.20956616       6.31579824       0.00031505
Mg       4.21027991       4.21036832       4.21036832
O        6.31498349       4.20985307       4.20985307
Mg       4.21017338       6.31481477       6.31481477
O        6.31495983       6.31517477       6.31517477
Mg       6.31506386       4.21018111       6.31484420
O        4.20987385       4.20961916       6.31547564
Mg       6.31506385       6.31484420       4.21018112
O        4.20987385       6.31547564       4.20961916
Li       2.46044735       1.04821193       1.04821192
