ALGO = Normal
EDIFF = 1e-07
EDIFFG = -0.02
ENAUG = 1360.0
ENCUT = 700
IBRION = 6
ISIF = 2
ISMEAR = 0
ISPIN = 1
KSPACING = 0.26650686440333105
LAECHG = False
LASPH = True
LCHARG = False
LELF = True
LMIXTAU = True
LORBIT = 11
LREAL = False
LVTOT = True
LWAVE = False
MAGMOM = 2*-0.0
NELM = 200
NSW = 1
PHON_LMC = True
PHON_NSTRUCT = 0
PHON_NTLIST = 2
PHON_TLIST = 0 100
PREC = Accurate
SIGMA = 0.05
