ALGO = Fast
EDIFF = 1e-05
EDIFFG = -0.02
ENAUG = 1360.0
ENCUT = 680.0
GGA = Ps
IBRION = 2
ISIF = 3
ISMEAR = -5
ISPIN = 2
KSPACING = 0.28226299677153693
LAECHG = True
LASPH = True
LCHARG = False
LELF = False
LMIXTAU = True
LORBIT = 11
LREAL = Auto
LVTOT = True
LWAVE = False
MAGMOM = 2*0.0
NELM = 200
NSW = 99
PREC = Accurate
SIGMA = 0.05
