ALGO = Normal
EDIFF = 1e-05
EDIFFG = -0.1
ENAUG = 1360.0
ENCUT = 500
IBRION = 1
ISIF = 2
ISMEAR = 0
ISPIN = 2
LAECHG = False
LASPH = True
LCHARG = True
LELF = False
LMAXMIX = 4
LMIXTAU = True
LORBIT = 11
LREAL = Auto
LVHAR = True
LVTOT = True
LWAVE = False
MAGMOM = 32*0.6
NCORE = 4
NELECT = 277.0
NELM = 200
NELMIN = 6
NSW = 99
PREC = Accurate
SIGMA = 0.05
