ALGO = Fast
EDIFF = 1e-05
EDIFFG = -0.02
ENAUG = 1360
ENCUT = 680
IBRION = 2
ISIF = 3
ISMEAR = 0
ISPIN = 2
LAECHG = True
LASPH = True
LCHARG = False
LELF = True
LMIXTAU = True
LORBIT = 11
LREAL = Auto
LVTOT = True
LWAVE = False
MAGMOM = 2*0.6
NELM = 200
NSW = 99
PREC = Accurate
SIGMA = 0.2
