pymatgen with grid density = 211 / number of atoms
0
Gamma
5 5 3
