Fe2
1.0
   2.3361450900000000    0.0001116700000000   -0.8258229300000000
  -1.1680779800000001    2.0230472399999999   -0.8260822000000000
   1.1700738700000000    2.0273050000000001    3.3103279600000000
Fe
2
direct
   0.5000000200000000    0.5000000800000000    0.4999999900000000 Fe
   0.9999999800000000    0.9999999200000000    0.0000000100000000 Fe
