ALGO = None
EDIFF = 1e-05
ENAUG = 1360.0
ENCUT = 500
GGA = Ps
ISMEAR = 0
ISPIN = 2
LAECHG = False
LASPH = True
LCHARG = True
LELF = False
LMIXTAU = True
LORBIT = 11
LREAL = False
LVTOT = True
LWAVE = False
LWSWQ = True
MAGMOM = 7*0.0
NELECT = 27.0
NELM = 200
NELMIN = 6
NSW = 0
PREC = Accurate
SIGMA = 0.05
