Si2
1.0
-0.000000 2.679677 2.733817
2.734364 -0.054687 2.733817
2.734364 2.734364 0.000000
Si
2
direct
0.750000 0.750000 0.750000 Si
0.500000 0.500000 0.500000 Si
