LatticeConstant 1.0 Ang
%block LatticeVectors
 8.42000000 0.00000000 0.00000000
 0.00000000 8.42000000 0.00000000
 0.00000000 0.00000000 8.42000000
%endblock LatticeVectors

NumberOfAtoms 65
AtomicCoordinatesFormat Ang
%block AtomicCoordinatesAndAtomicSpecies
 -0.00911017 -0.00693564 -0.00693561 1 #  1: Mg
  2.10515369  0.00013553  0.00013553 2 #  2: O
 -0.00912793  2.11194517  2.11194514 1 #  3: Mg
  2.10518585  2.10489973  2.10489972 2 #  4: O
  2.12258079 -0.02679052  2.13176876 1 #  5: Mg
  0.00432218  0.00303129  2.10197092 2 #  6: O
  2.12258076  2.13176875 -0.02679048 1 #  7: Mg
  0.00432222  2.10197095  0.00303123 2 #  8: O
 -0.00026407 -0.00012861  4.21120711 1 #  9: Mg
  2.10470940  0.00047132  4.20923697 2 # 10: O
 -0.00026202  2.10512798  6.31379325 1 # 11: Mg
  2.10471018  2.10452915  6.31577009 2 # 12: O
  2.10512711 -0.00025026  6.31343171 1 # 13: Mg
  0.00058707  0.00037537  6.31572079 2 # 14: O
  2.10512592  2.10524569  4.21156793 1 # 15: Mg
  0.00058741  2.10462539  4.20927850 2 # 16: O
 -0.00026427  4.21120703 -0.00012839 1 # 17: Mg
  2.10470940  4.20923691  0.00047139 2 # 18: O
 -0.00026183  6.31379318  2.10512783 1 # 19: Mg
  2.10471029  6.31577016  2.10452917 2 # 20: O
  2.10512590  4.21156793  2.10524598 1 # 21: Mg
  0.00058740  4.20927844  2.10462535 2 # 22: O
  2.10512697  6.31343169 -0.00025016 1 # 23: Mg
  0.00058696  6.31572086  0.00037532 2 # 24: O
 -0.00021747  4.21018983  4.21018984 1 # 25: Mg
  2.10490078  4.20941608  4.20941609 2 # 26: O
 -0.00022150  6.31481175  6.31481171 1 # 27: Mg
  2.10490078  6.31558502  6.31558499 2 # 28: O
  2.10511499  4.21033525  6.31466876 1 # 29: Mg
  0.00020841  4.20952853  6.31547145 2 # 30: O
  2.10511499  6.31466879  4.21033489 1 # 31: Mg
  0.00020843  6.31547144  4.20952856 2 # 32: O
  4.21182643 -0.00033378 -0.00033376 1 # 33: Mg
  6.31552392  0.00040178  0.00040174 2 # 34: O
  4.21182867  2.10533244  2.10533238 1 # 35: Mg
  6.31552374  2.10459873  2.10459875 2 # 36: O
  6.31398369 -0.00007924  2.10507822 1 # 37: Mg
  4.20890038  0.00048007  2.10452057 2 # 38: O
  6.31398371  2.10507837 -0.00007937 1 # 39: Mg
  4.20890044  2.10452054  0.00048009 2 # 40: O
  4.21036453 -0.00016001  4.21035564 1 # 41: Mg
  6.31542436  0.00012867  4.20948893 2 # 42: O
  4.21036563  2.10515916  6.31464600 1 # 43: Mg
  6.31542433  2.10487176  6.31551095 2 # 44: O
  6.31485911 -0.00017079  6.31484183 1 # 45: Mg
  4.20937221  0.00016873  6.31553970 2 # 46: O
  6.31485797  2.10516917  4.21015512 1 # 47: Mg
  4.20937243  2.10483236  4.20946075 2 # 48: O
  4.21036428  4.21035541 -0.00015997 1 # 49: Mg
  6.31542442  4.20948882  0.00012860 2 # 50: O
  4.21036539  6.31464602  2.10515918 1 # 51: Mg
  6.31542437  6.31551095  2.10487177 2 # 52: O
  6.31485772  4.21015539  2.10516898 1 # 53: Mg
  4.20937241  4.20946079  2.10483236 2 # 54: O
  6.31485899  6.31484179 -0.00017074 1 # 55: Mg
  4.20937227  6.31553972  0.00016862 2 # 56: O
  4.21022120  4.21017405  4.21017407 1 # 57: Mg
  6.31510645  4.20985050  4.20985051 2 # 58: O
  4.21022884  6.31482456  6.31482469 1 # 59: Mg
  6.31510649  6.31514933  6.31514937 2 # 60: O
  6.31487128  4.21017747  6.31482632 1 # 61: Mg
  4.20976922  4.20980827  6.31519132 2 # 62: O
  6.31487119  6.31482648  4.21017723 1 # 63: Mg
  4.20976922  6.31519137  4.20980830 2 # 64: O
  1.39693851  1.05275833  1.05275842 3 # 65: Li
%endblock AtomicCoordinatesAndAtomicSpecies

NumberOfSpecies 3
%block ChemicalSpeciesLabel
 1 12 Mg
 2 8 O
 3 3 Li
%endblock ChemicalSpeciesLabel
