ALGO = Normal
EDIFF = 1e-07
ENAUG = 1360.0
ENCUT = 680.0
GGA = Ps
IBRION = 2
ISIF = 2
ISMEAR = -5
ISPIN = 2
LAECHG = False
LASPH = True
LCHARG = True
LELF = False
LMIXTAU = True
LORBIT = 11
LREAL = False
LVTOT = False
LWAVE = False
MAGMOM = 2*-0.0
NBANDS = 8
NELM = 200
NPAR = 4
NSW = 0
PREC = Accurate
SIGMA = 0.05
