Si8
1.0
   5.7048647662555423    0.0000000000000000    0.0000000000000003
   0.0000000000000009    5.7048647662555423    0.0000000000000003
   0.0000000000000000    0.0000000000000000    5.7048647662555423
Si
8
direct
   0.6708061227405422    0.8451227557649643    0.1919034097978448 Si
   0.9604485323387013    0.5392990148604190    0.4065264492691416 Si
   0.6946336427526441    0.1788844553971767    0.8664123375472427 Si
   0.1990593483312263    0.8643034616013815    0.1251757448841483 Si
   0.2746621894523141    0.7175442000571920    0.6536886834447161 Si
   0.4683843164737748    0.5331730997473487    0.0052853755135787 Si
   0.2426719550752043    0.2836407898173949    0.2382938223310693 Si
   0.4893338728355927    0.0380322177541228    0.5127141980122581 Si

  -0.0033143598000000    0.0067121574000000   -0.0061093214000000
   0.0045268204000000    0.0047940800000000   -0.0053890180000000
  -0.0072960471000000   -0.0032325457000000    0.0053197709000000
   0.0022462426000000   -0.0015961538000000    0.0026225747000000
   0.0003634752700000    0.0006495982500000    0.0026302818000000
   0.0009133639100000   -0.0029515438000000   -0.0009742949600000
   0.0018439260000000   -0.0051143795000000   -0.0025259448000000
   0.0007165787600000    0.0007387871800000    0.0044259518000000

1
   2.00000000000000
  0.36874468E+01  0.13297330E+00  0.13547664E+00  0.35532219E+01
   0.6696441800000000    0.8474758900000000    0.1897616200000000
   0.9620355400000000    0.5409797100000000    0.4046371800000000
   0.6920758100000000    0.1777512000000000    0.8682773300000000
   0.1998468300000000    0.8637438900000000    0.1260951600000000
   0.2747896200000000    0.7177719299999999    0.6546108000000000
   0.4687045200000000    0.5321383500000000    0.0049438091000000
   0.2433183900000000    0.2818478000000000    0.2374082800000000
   0.4895850900000000    0.0382912200000000    0.5142658400000000
   0.0000000000000000    0.0000000000000000    0.0000000000000000
   0.0000000000000000    0.0000000000000000    0.0000000000000000
   0.0000000000000000    0.0000000000000000    0.0000000000000000
   0.0000000000000000    0.0000000000000000    0.0000000000000000
   0.0000000000000000    0.0000000000000000    0.0000000000000000
   0.0000000000000000    0.0000000000000000    0.0000000000000000
   0.0000000000000000    0.0000000000000000    0.0000000000000000
   0.0000000000000000    0.0000000000000000    0.0000000000000000
   0.0000000000000000    0.0000000000000000    0.0000000000000000
   0.0000000000000000    0.0000000000000000    0.0000000000000000
   0.0000000000000000    0.0000000000000000    0.0000000000000000
   0.0000000000000000    0.0000000000000000    0.0000000000000000
   0.0000000000000000    0.0000000000000000    0.0000000000000000
   0.0000000000000000    0.0000000000000000    0.0000000000000000
   0.0000000000000000    0.0000000000000000    0.0000000000000000
   0.0000000000000000    0.0000000000000000    0.0000000000000000
