ALGO = Fast
EDIFF = 1e-05
EDIFFG = -0.05
ENAUG = 1360
ENCUT = 500
GGA = Ps
IBRION = 1
ISIF = 3
ISMEAR = 0
ISPIN = 2
LAECHG = False
LASPH = True
LCHARG = True
LELF = False
LMAXMIX = 4
LMIXTAU = True
LORBIT = 11
LREAL = False
LVHAR = False
LVTOT = True
LWAVE = False
MAGMOM = 32*0.6
NELECT = 288.0
NELM = 200
NELMIN = 6
NSW = 99
PREC = Accurate
SIGMA = 0.05
