ALGO = Fast
EDIFF = 1e-05
EDIFFG = -0.02
ENAUG = 1360
ENCUT = 680
GGA = Ps
IBRION = 2
ISIF = 3
ISMEAR = 0
ISPIN = 2
LAECHG = True
LASPH = True
LCHARG = False
LDAU = True
LDAUJ = 0 0 0
LDAUL = 0 2 0
LDAUPRINT = 1
LDAUTYPE = 2
LDAUU = 0 3.9 0
LELF = False
LMAXMIX = 4
LMIXTAU = True
LORBIT = 11
LREAL = False
LVTOT = True
LWAVE = False
MAGMOM = 2*0.6 2*-5.0 2*5.0 8*0.6
NELM = 200
NSW = 99
PREC = Accurate
SIGMA = 0.2
