ALGO = Fast
EDIFF = 1e-07
EDIFFG = -0.001
ENAUG = 1360
ENCUT = 700
GGA = Ps
IBRION = 2
ISIF = 3
ISMEAR = 0
ISPIN = 2
LAECHG = False
LASPH = True
LCHARG = False
LELF = False
LMIXTAU = True
LORBIT = 11
LREAL = False
LVTOT = True
LWAVE = False
MAGMOM = 8*-0.0
NELM = 200
NPAR = 4
NSW = 99
PREC = Accurate
SIGMA = 0.05
