ALGO = Fast
EDIFF = 1e-05
EDIFFG = -0.02
ENAUG = 1360
ENCUT = 680
GGA = Ps
IBRION = 2
ISIF = 3
ISMEAR = 0
ISPIN = 2
LAECHG = True
LASPH = True
LCHARG = False
LELF = False
LMIXTAU = True
LORBIT = 11
LREAL = False
LVTOT = True
LWAVE = False
MAGMOM = 2*0.6
NELM = 200
NPAR = 4
NSW = 99
PREC = Accurate
SIGMA = 0.2
