pymatgen with grid density = 780 / number of atoms
0
Gamma
7 7 7
