LatticeConstant 1.0 Ang
%block LatticeVectors
 4.20000000 0.00000000 0.00000000
 -0.00000000 4.20000000 0.00000000
 0.00000000 0.00000000 19.60000000
%endblock LatticeVectors

NumberOfAtoms 8
AtomicCoordinatesFormat Ang
%block AtomicCoordinatesAndAtomicSpecies
  0.00000000  0.00000000  6.27200000 1 # 1: Mg
  2.10000000  2.10000000  6.27200000 1 # 2: Mg
  2.10000000  0.00000000  7.05600000 2 # 3: O
 -0.00000000  2.10000000  7.05600000 2 # 4: O
  0.00000000  0.00000000  8.42800000 1 # 5: Mg
  2.10000000  2.10000000  8.42800000 1 # 6: Mg
  2.10000000  0.00000000  9.21200000 2 # 7: O
 -0.00000000  2.10000000  9.21200000 2 # 8: O
%endblock AtomicCoordinatesAndAtomicSpecies

NumberOfSpecies 2
%block ChemicalSpeciesLabel
 1 12 Mg
 2 8 O
%endblock ChemicalSpeciesLabel
