ALGO = Normal
EDIFF = 1e-05
ENAUG = 1360.0
ENCUT = 680.0
ICHARG = 11
ISMEAR = -5
ISPIN = 1
ISYM = 2
LAECHG = True
LASPH = True
LCHARG = False
LELF = True
LMIXTAU = True
LORBIT = 11
LREAL = Auto
LVTOT = True
LWAVE = False
NBANDS = 10
NCORE = 4
NEDOS = 4352
NELM = 200
NSW = 0
PREC = Accurate
SIGMA = 0.05
