Si8
1.0
   5.7094497776852497    0.0000000000000000    0.0000000000000003
   0.0000000000000009    5.7094497776852497    0.0000000000000003
   0.0000000000000000    0.0000000000000000    5.7094497776852497
Si
8
direct
   0.7538872901869648    0.7529938311614831    0.2224901404785674 Si
  -0.0208092556086825    0.5074458365889017    0.5007829289919334 Si
   0.7575430442097246    0.2565728784256340    0.7812306369447307 Si
   0.0174221567914732    0.0014415918295729    0.0005583930216209 Si
   0.2319879379300249    0.7610702497941469    0.7357981966117099 Si
   0.4773404599813073    0.4983386388150902    0.0049239085431024 Si
   0.2524830105772036    0.2347587222734787    0.2636806092634982 Si
   0.5301453559319843   -0.0126217488883076    0.4905351861448370 Si

  -0.0006186644700000   -0.0009976243400000   -0.0053320164000000
  -0.0022091496000000   -0.0022589045000000   -0.0021187280000000
  -0.0028996513000000    0.0026983159000000    0.0042115214000000
   0.0051422538000000   -0.0008526946400000   -0.0008024108300000
  -0.0004994895400000    0.0028012609000000   -0.0033911263000000
  -0.0050707767000000    0.0005964965700000   -0.0015621148000000
  -0.0020526035000000   -0.0002819415800000    0.0074467446000000
   0.0082080813000000   -0.0017049083000000    0.0015481305000000

1
   2.00000000000000     
 -0.44799660E+00 -0.25160643E-01 -0.31744694E-01 -0.41954393E+00
   0.7536705700000000    0.7526443700000000    0.2206223500000000
   0.9784168900000000    0.5066545500000000    0.5000407500000000
   0.7565273100000000    0.2575180900000000    0.7827059200000001
   0.0192234700000000    0.0011428959000000    0.0002773113600000
   0.2318129700000000    0.7620515200000000    0.7346103000000000
   0.4755641800000000    0.4985475900000000    0.0043767053000000
   0.2517639900000000    0.2346599600000000    0.2662891800000000
   0.5330206199999999    0.9867810299999999    0.4910774900000000
   0.0000000000000000    0.0000000000000000    0.0000000000000000
   0.0000000000000000    0.0000000000000000    0.0000000000000000
   0.0000000000000000    0.0000000000000000    0.0000000000000000
   0.0000000000000000    0.0000000000000000    0.0000000000000000
   0.0000000000000000    0.0000000000000000    0.0000000000000000
   0.0000000000000000    0.0000000000000000    0.0000000000000000
   0.0000000000000000    0.0000000000000000    0.0000000000000000
   0.0000000000000000    0.0000000000000000    0.0000000000000000
   0.0000000000000000    0.0000000000000000    0.0000000000000000
   0.0000000000000000    0.0000000000000000    0.0000000000000000
   0.0000000000000000    0.0000000000000000    0.0000000000000000
   0.0000000000000000    0.0000000000000000    0.0000000000000000
   0.0000000000000000    0.0000000000000000    0.0000000000000000
   0.0000000000000000    0.0000000000000000    0.0000000000000000
   0.0000000000000000    0.0000000000000000    0.0000000000000000
   0.0000000000000000    0.0000000000000000    0.0000000000000000
