LatticeConstant 1.0 Ang
%block LatticeVectors
 9.57671373 0.00000000 0.00000000
 -4.78835685 8.29367736 0.00000000
 0.00000000 0.00000000 13.37829400
%endblock LatticeVectors

NumberOfAtoms 54
AtomicCoordinatesFormat Ang
%block AtomicCoordinatesAndAtomicSpecies
  1.59611896  0.92151971  3.34458010 1 #  1: Mo
  0.00000001  3.68607883  3.34458010 1 #  2: Mo
 -1.59611894  6.45063795  3.34458010 1 #  3: Mo
  4.78835687  0.92151971  3.34458010 1 #  4: Mo
  3.19223792  3.68607883  3.34458010 1 #  5: Mo
  1.59611897  6.45063795  3.34458010 1 #  6: Mo
  7.98059478  0.92151971  3.34458010 1 #  7: Mo
  6.38447583  3.68607883  3.34458010 1 #  8: Mo
  4.78835688  6.45063795  3.34458010 1 #  9: Mo
  0.00000000  1.84303941 10.03371390 1 # 10: Mo
 -1.59611895  4.60759853 10.03371390 1 # 11: Mo
 -3.19223790  7.37215765 10.03371390 1 # 12: Mo
  3.19223791  1.84303941 10.03371390 1 # 13: Mo
  1.59611896  4.60759853 10.03371390 1 # 14: Mo
  0.00000001  7.37215765 10.03371390 1 # 15: Mo
  6.38447582  1.84303941 10.03371390 1 # 16: Mo
  4.78835687  4.60759853 10.03371390 1 # 17: Mo
  3.19223792  7.37215765 10.03371390 1 # 18: Mo
  1.59611896  0.92151971  8.45226680 2 # 19: S_ghost
  0.00000001  3.68607883  8.45226680 3 # 20: S
 -1.59611894  6.45063795  8.45226680 3 # 21: S
  4.78835687  0.92151971  8.45226680 3 # 22: S
  3.19223792  3.68607883  8.45226680 3 # 23: S
  1.59611897  6.45063795  8.45226680 3 # 24: S
  7.98059478  0.92151971  8.45226680 3 # 25: S
  6.38447583  3.68607883  8.45226680 3 # 26: S
  4.78835688  6.45063795  8.45226680 3 # 27: S
  0.00000000  1.84303941  4.92602719 3 # 28: S
 -1.59611895  4.60759853  4.92602719 3 # 29: S
 -3.19223790  7.37215765  4.92602719 3 # 30: S
  3.19223791  1.84303941  4.92602719 3 # 31: S
  1.59611896  4.60759853  4.92602719 3 # 32: S
  0.00000001  7.37215765  4.92602719 3 # 33: S
  6.38447582  1.84303941  4.92602719 3 # 34: S
  4.78835687  4.60759853  4.92602719 3 # 35: S
  3.19223792  7.37215765  4.92602719 3 # 36: S
  1.59611896  0.92151971 11.61517756 3 # 37: S
  0.00000001  3.68607883 11.61517756 3 # 38: S
 -1.59611894  6.45063795 11.61517756 3 # 39: S
  4.78835687  0.92151971 11.61517756 3 # 40: S
  3.19223792  3.68607883 11.61517756 3 # 41: S
  1.59611897  6.45063795 11.61517756 3 # 42: S
  7.98059478  0.92151971 11.61517756 3 # 43: S
  6.38447583  3.68607883 11.61517756 3 # 44: S
  4.78835688  6.45063795 11.61517756 3 # 45: S
  0.00000000  1.84303941  1.76311645 3 # 46: S
 -1.59611895  4.60759853  1.76311645 3 # 47: S
 -3.19223790  7.37215765  1.76311645 3 # 48: S
  3.19223791  1.84303941  1.76311645 3 # 49: S
  1.59611896  4.60759853  1.76311645 3 # 50: S
  0.00000001  7.37215765  1.76311645 3 # 51: S
  6.38447582  1.84303941  1.76311645 3 # 52: S
  4.78835687  4.60759853  1.76311645 3 # 53: S
  3.19223792  7.37215765  1.76311645 3 # 54: S
%endblock AtomicCoordinatesAndAtomicSpecies

NumberOfSpecies 3
%block ChemicalSpeciesLabel
 1 42 Mo
 2 -16 S_ghost
 3 16 S
%endblock ChemicalSpeciesLabel
