ALGO = Fast
EDIFF = 1e-05
EDIFFG = -0.02
ENAUG = 1360
ENCUT = 680
GGA = Ps
IBRION = 8
ISIF = 3
ISMEAR = -5
ISPIN = 2
KSPACING = 0.22
LAECHG = True
LASPH = True
LCHARG = True
LELF = False
LEPSILON = True
LMIXTAU = True
LORBIT = 11
LPEAD = True
LREAL = False
LVTOT = True
LWAVE = False
MAGMOM = 8*0.6
NELM = 200
NSW = 1
PREC = Accurate
SIGMA = 0.2
