Si64
1.0
  10.8356107895136304    0.0000000000000000    0.0000000000000006
  -0.0000000000000006   10.8356107895136304    0.0000000000000006
   0.0000000000000000    0.0000000000000000   10.8356107895136304
Si
64
direct
   0.0009228829084261    0.0000000000000000    0.0000000000000000 Si
   0.5000000000000000    0.0000000000000000    0.0000000000000000 Si
  -0.0000000000000000    0.5000000000000000    0.0000000000000000 Si
   0.5000000000000000    0.5000000000000000    0.0000000000000000 Si
   0.0000000000000000    0.0000000000000000    0.5000000000000000 Si
   0.5000000000000000    0.0000000000000000    0.4999999999999999 Si
  -0.0000000000000000    0.5000000000000000    0.4999999999999999 Si
   0.5000000000000000    0.5000000000000000    0.5000000000000000 Si
   0.1250000000000000    0.1250000000000000    0.1250000000000000 Si
   0.6250000000000000    0.1250000000000000    0.1250000000000000 Si
   0.1250000000000000    0.6250000000000000    0.1250000000000000 Si
   0.6250000000000000    0.6250000000000000    0.1250000000000000 Si
   0.1250000000000000    0.1250000000000000    0.6250000000000000 Si
   0.6250000000000000    0.1250000000000000    0.6250000000000000 Si
   0.1250000000000000    0.6250000000000000    0.6250000000000000 Si
   0.6250000000000000    0.6250000000000000    0.6250000000000000 Si
  -0.0000000000000000    0.2500000000000000    0.2500000000000000 Si
   0.5000000000000000    0.2500000000000000    0.2500000000000000 Si
  -0.0000000000000000    0.7500000000000000    0.2500000000000000 Si
   0.4999999999999999    0.7500000000000000    0.2500000000000000 Si
  -0.0000000000000000    0.2500000000000000    0.7500000000000000 Si
   0.5000000000000000    0.2500000000000000    0.7499999999999999 Si
  -0.0000000000000000    0.7500000000000000    0.7499999999999999 Si
   0.4999999999999999    0.7500000000000000    0.7499999999999999 Si
   0.3750000000000000    0.1250000000000000    0.3749999999999999 Si
   0.8750000000000000    0.1250000000000000    0.3750000000000000 Si
   0.3750000000000001    0.6250000000000000    0.3750000000000000 Si
   0.8750000000000000    0.6250000000000000    0.3750000000000000 Si
   0.3750000000000000    0.1250000000000000    0.8750000000000000 Si
   0.8750000000000000    0.1250000000000000    0.8750000000000000 Si
   0.3750000000000001    0.6250000000000000    0.8750000000000000 Si
   0.8750000000000000    0.6250000000000000    0.8750000000000000 Si
   0.1250000000000000    0.3750000000000000    0.3749999999999999 Si
   0.6250000000000000    0.3750000000000000    0.3750000000000000 Si
   0.1250000000000000    0.8750000000000000    0.3750000000000000 Si
   0.6249999999999999    0.8750000000000000    0.3750000000000000 Si
   0.1250000000000000    0.3750000000000000    0.8750000000000000 Si
   0.6250000000000000    0.3750000000000000    0.8750000000000000 Si
   0.1250000000000000    0.8750000000000000    0.8750000000000000 Si
   0.6249999999999999    0.8750000000000000    0.8750000000000000 Si
   0.3750000000000000    0.3750000000000000    0.1250000000000000 Si
   0.8750000000000000    0.3750000000000000    0.1250000000000000 Si
   0.3749999999999999    0.8750000000000000    0.1250000000000000 Si
   0.8750000000000000    0.8750000000000000    0.1250000000000000 Si
   0.3750000000000000    0.3750000000000000    0.6250000000000000 Si
   0.8750000000000000    0.3750000000000000    0.6250000000000000 Si
   0.3749999999999999    0.8750000000000000    0.6250000000000000 Si
   0.8750000000000000    0.8750000000000000    0.6250000000000000 Si
   0.2500000000000000    0.0000000000000000    0.2500000000000000 Si
   0.7500000000000000    0.0000000000000000    0.2500000000000000 Si
   0.2500000000000000    0.5000000000000000    0.2500000000000000 Si
   0.7500000000000000    0.5000000000000000    0.2500000000000000 Si
   0.2500000000000000    0.0000000000000000    0.7500000000000000 Si
   0.7500000000000000    0.0000000000000000    0.7499999999999999 Si
   0.2500000000000000    0.5000000000000000    0.7499999999999999 Si
   0.7500000000000000    0.5000000000000000    0.7499999999999999 Si
   0.2500000000000000    0.2500000000000000    0.0000000000000000 Si
   0.7500000000000000    0.2500000000000000    0.0000000000000000 Si
   0.2500000000000000    0.7500000000000000    0.0000000000000000 Si
   0.7500000000000000    0.7500000000000000    0.0000000000000000 Si
   0.2500000000000000    0.2500000000000000    0.4999999999999999 Si
   0.7500000000000000    0.2500000000000000    0.5000000000000000 Si
   0.2500000000000000    0.7500000000000000    0.5000000000000000 Si
   0.7500000000000000    0.7500000000000000    0.5000000000000000 Si
