ALGO = Fast
EDIFF = 1e-05
ENAUG = 1360
ENCUT = 680
GGA = Ps
ISMEAR = 0
ISPIN = 1
LAECHG = True
LASPH = True
LCHARG = True
LELF = False
LMIXTAU = True
LORBIT = 11
LREAL = False
LVTOT = True
LWAVE = False
MAGMOM = 8*0.0
NELM = 200
NPAR = 4
NSW = 0
PREC = Accurate
SIGMA = 0.05
