pymatgen with grid density = 776 / number of atoms
0
Gamma
7 7 7
