# 
# This is the geometry file that corresponds to the current relaxation step.
# If you do not want this file to be written, set the "write_restart_geometry" flag to .false.
#  aims_uuid : A80B75EA-A628-45C5-ADDE-8656594C396C                                
# 
lattice_vector     -0.00000040      2.80791457      2.80791457
lattice_vector      2.80791518      0.00000020      2.80791498
lattice_vector      2.80791518      2.80791499      0.00000020
atom_frac      -0.00000008      0.00000003      0.00000004 Si
atom_frac       0.25000007      0.24999997      0.24999996 Si
# 
# What follows is the current estimated Hessian matrix constructed by the BFGS algorithm.
# This is NOT the true Hessian matrix of the system.
# If you do not want this information here, switch it off using the "hessian_to_restart_geometry" keyword.
# 
trust_radius             0.2000000030
hessian_file
