Si7
1.0
5.4378483500000003 0.0000000000000000 0.0000000000000000
0.0000000000000000 5.4378483500000003 0.0000000000000000
0.0000000000000000 0.0000000000000000 5.4378483500000003
Si
7
direct
0.2410465690000000 0.7589534310000000 0.2410465690000000 Si
-0.0000000000000000 -0.0000000000000000 0.5000000000000000 Si
0.2410465690000000 0.2410465690000000 0.7589534310000000 Si
-0.0000000000000000 0.5000000000000000 -0.0000000000000000 Si
0.7589534310000000 0.7589534310000000 0.7589534310000000 Si
0.5000000000000000 -0.0000000000000000 -0.0000000000000000 Si
0.7589534310000000 0.2410465690000000 0.2410465690000000 Si
