LatticeConstant 1.0 Ang
%block LatticeVectors
 8.42000000 0.00000000 0.00000000
 0.00000000 8.42000000 0.00000000
 0.00000000 0.00000000 8.42000000
%endblock LatticeVectors

NumberOfAtoms 65
AtomicCoordinatesFormat Ang
%block AtomicCoordinatesAndAtomicSpecies
 -0.00903250 -0.00687840 -0.00687841 1 #  1: Mg
  2.10517820  0.00003508  0.00003507 2 #  2: O
 -0.00902403  2.11187300  2.11187299 1 #  3: Mg
  2.10517038  2.10495349  2.10495348 2 #  4: O
  2.12261979 -0.02727983  2.13227507 1 #  5: Mg
  0.00433378  0.00301554  2.10198377 2 #  6: O
  2.12261978  2.13227507 -0.02727983 1 #  7: Mg
  0.00433378  2.10198377  0.00301555 2 #  8: O
 -0.00025975 -0.00012837  4.21121138 1 #  9: Mg
  2.10471266  0.00047117  4.20923717 2 # 10: O
 -0.00026011  2.10512883  6.31379220 1 # 11: Mg
  2.10471287  2.10452889  6.31576616 2 # 12: O
  2.10513116 -0.00025406  6.31343158 1 # 13: Mg
  0.00058819  0.00037600  6.31572049 2 # 14: O
  2.10513160  2.10525379  4.21157700 1 # 15: Mg
  0.00058803  2.10462392  4.20928006 2 # 16: O
 -0.00025974  4.21121138 -0.00012835 1 # 17: Mg
  2.10471266  4.20923718  0.00047117 2 # 18: O
 -0.00026011  6.31379220  2.10512883 1 # 19: Mg
  2.10471287  6.31576615  2.10452890 2 # 20: O
  2.10513160  4.21157700  2.10525378 1 # 21: Mg
  0.00058804  4.20928006  2.10462392 2 # 22: O
  2.10513116  6.31343157 -0.00025406 1 # 23: Mg
  0.00058819  6.31572049  0.00037599 2 # 24: O
 -0.00020257  4.21019033  4.21019033 1 # 25: Mg
  2.10490155  4.20942060  4.20942060 2 # 26: O
 -0.00020287  6.31480743  6.31480743 1 # 27: Mg
  2.10490143  6.31558005  6.31558005 2 # 28: O
  2.10511160  4.21033152  6.31466795 1 # 29: Mg
  0.00020681  4.20952953  6.31547087 2 # 30: O
  2.10511160  6.31466796  4.21033153 1 # 31: Mg
  0.00020681  6.31547088  4.20952953 2 # 32: O
  4.21184365 -0.00036721 -0.00036721 1 # 33: Mg
  6.31551885  0.00040223  0.00040224 2 # 34: O
  4.21184371  2.10536738  2.10536739 1 # 35: Mg
  6.31551888  2.10459784  2.10459784 2 # 36: O
  6.31398716 -0.00007975  2.10507966 1 # 37: Mg
  4.20888319  0.00049230  2.10450812 2 # 38: O
  6.31398717  2.10507966 -0.00007975 1 # 39: Mg
  4.20888319  2.10450812  0.00049230 2 # 40: O
  4.21036144 -0.00015732  4.21035078 1 # 41: Mg
  6.31542278  0.00012755  4.20948809 2 # 42: O
  4.21036378  2.10515744  6.31464638 1 # 43: Mg
  6.31542263  2.10487241  6.31551225 2 # 44: O
  6.31485561 -0.00015753  6.31484202 1 # 45: Mg
  4.20937656  0.00017071  6.31553572 2 # 46: O
  6.31485531  2.10515779  4.21015764 1 # 47: Mg
  4.20937655  2.10482949  4.20946513 2 # 48: O
  4.21036144  4.21035079 -0.00015732 1 # 49: Mg
  6.31542279  4.20948809  0.00012754 2 # 50: O
  4.21036377  6.31464638  2.10515744 1 # 51: Mg
  6.31542264  6.31551225  2.10487242 2 # 52: O
  6.31485531  4.21015765  2.10515779 1 # 53: Mg
  4.20937655  4.20946513  2.10482949 2 # 54: O
  6.31485561  6.31484203 -0.00015753 1 # 55: Mg
  4.20937656  6.31553572  0.00017071 2 # 56: O
  4.21021075  4.21017201  4.21017202 1 # 57: Mg
  6.31510574  4.20985136  4.20985136 2 # 58: O
  4.21021154  6.31482627  6.31482628 1 # 59: Mg
  6.31510573  6.31514884  6.31514885 2 # 60: O
  6.31487225  4.21016493  6.31483441 1 # 61: Mg
  4.20976995  4.20980799  6.31519229 2 # 62: O
  6.31487226  6.31483442  4.21016493 1 # 63: Mg
  4.20976995  6.31519229  4.20980798 2 # 64: O
  1.40457971  1.05234953  1.05234952 3 # 65: Li
%endblock AtomicCoordinatesAndAtomicSpecies

NumberOfSpecies 3
%block ChemicalSpeciesLabel
 1 12 Mg
 2 8 O
 3 3 Li
%endblock ChemicalSpeciesLabel
