Si2
1.0
   3.3488980000000002    0.0000000000000000    1.9334870000000000
   1.1162989999999999    3.1573720000000001    1.9334870000000000
   0.0000000000000000    0.0000000000000000    3.8669750000000001
Si
2
direct
   0.2509246999416777    0.2479629372437218    0.2497071651391614 Si
  -0.0009246999416777    0.0020370627562782    0.0002928348608386 Si

   0.0004025256800000   -0.0031480439000000   -0.0016045943000000
  -0.0004025256800000    0.0031480439000000    0.0016045943000000

1
   1.0000000000000000
 -0.63509263E-03 -0.84024339E-03 -0.21494156E-03 -0.10750015E-03
   0.2513772400000000    0.2469658900000000    0.2495644700000000
   0.9986227600000001    0.0030341084000000    0.0004355327700000
   0.0000000000000000    0.0000000000000000    0.0000000000000000
   0.0000000000000000    0.0000000000000000    0.0000000000000000
   0.0000000000000000    0.0000000000000000    0.0000000000000000
   0.0000000000000000    0.0000000000000000    0.0000000000000000
