CRYSTAL
PRIMVEC
 9.49686684019041 0.00000000000000 0.00000000000000
 0.00000000000000 6.01267660002855 0.00000000000000
 0.00000000000000 0.00000000000000 77.21506057016393
PRIMCOORD
 96 1
 29    -0.00004668454272     3.00633822645864    33.90883787230792
 29     4.74846463255463    -0.00000002645886    33.90882982299338
 29     0.05581355500437     1.50316919207673    30.81731622169999
 29     4.69271972400559     1.50316913862983    30.81734805858853
  6     2.37424595793664     0.00000003598405    30.07600197687659
  6     7.12268794858595     3.00633833388161    31.43821864121454
  6     2.37420869274827     1.50316920477698    33.19199109999150
  6     7.12265236935617     1.50316920689369    34.61972299396334
  7     3.62679436701827     0.00000001217108    30.03448779978093
  7     5.86978232848247     0.00000001164190    31.48980786132934
  7     8.37564597469616     3.00633832806067    31.48979394820211
  7     1.12174727510834     3.00633831271453    30.03447479260509
  7     3.62726402290566     1.50316920848122    33.13853118710598
  7     5.86987587219639     1.50316920371862    34.67451634663528
  7     8.37540049044637     1.50316917355552    34.67451852419950
  7     1.12120757679613     1.50316912381287    33.13856168305946
 29     9.49595622199152     3.00633828572649    40.17317580082352
 29     4.74932536204279    -0.00000019103297    40.17318784172178
 29     0.00090177194345     1.50316902644426    37.04186533054474
 29     4.74752511969250     1.50316921377299    37.04186104632605
  6     2.37419227185024    -0.00000004180500    36.32106094399919
  6     7.12263409316284     3.00633825820927    37.75916796839045
  6     2.37419483412629     1.50316914445078    39.45587302803763
  6     7.12262799439548     1.50316915344679    40.89399400418606
  7     3.62728517200207     0.00000000158753    36.26737054692109
  7     5.86963160770008    -0.00000002434215    37.81326122860838
  7     8.37567421900061     3.00633822169605    37.81325658931176
  7     1.12117361049849     3.00633815978231    36.26737279698259
  7     3.62723469272957     1.50316915027173    39.40179550872502
  7     5.86960144512824     1.50316911217097    40.94766798777459
  7     8.37570671153972     1.50316916350116    40.94769678771512
  7     1.12118687908788     1.50316914233407    39.40177867453959
 29     9.44107320341625     3.00633832541478    46.39773539637306
 29     4.80417232830385    -0.00000015663645    46.39772263314792
 29     0.00003003927355     1.50316917567223    43.30622838545268
 29     4.74838689113058     1.50316914339242    43.30620626478689
  6     2.37424140330838     0.00000000370424    42.59533245641109
  6     7.12265717375607     3.00633827831801    44.02305130298959
  6     2.37418194019437     1.50316906824926    45.77684165271889
  6     7.12258274656889     1.50316906189913    47.13905838637907
  7     3.62696533782498    -0.00000003651323    42.54052455030748
  7     5.86961250069853    -0.00000002063791    44.07650651942738
  7     8.37566326238646     3.00633828678484    44.07651012259501
  7     1.12143260993424     3.00633829736839    42.54054361127063
  7     3.62712235634535     1.50316905819489    45.72526693946816
  7     5.87013026302781     1.50316910264578    47.18055770576616
  7     8.37517398989985     1.50316909206223    47.18060561958754
  7     1.12124755243017     1.50316910370413    45.72524439281472
 29    -0.00004668454272    -0.00000007355563    33.90883787230792
 29     4.74846463255463     3.00633827355541    33.90882982299338
 29     0.05581355500437     4.50950749209100    30.81731622169999
 29     4.69271972400559     4.50950743864410    30.81734805858853
  6     2.37424595793664     3.00633833599832    30.07600197687659
  6     7.12268794858595     0.00000003386734    31.43821864121454
  6     2.37420869274827     4.50950750479125    33.19199109999150
  6     7.12265236935617     4.50950750690796    34.61972299396334
  7     3.62679436701827     3.00633831218535    30.03448779978093
  7     5.86978232848247     3.00633831165617    31.48980786132934
  7     8.37564597469616     0.00000002804639    31.48979394820211
  7     1.12174727510834     0.00000001270025    30.03447479260509
  7     3.62726402290566     4.50950750849549    33.13853118710598
  7     5.86987587219639     4.50950750373290    34.67451634663528
  7     8.37540049044637     4.50950747356980    34.67451852419950
  7     1.12120757679613     4.50950742382714    33.13856168305946
 29     9.49595622199152    -0.00000001428778    40.17317580082352
 29     4.74932536204279     3.00633810898130    40.17318784172178
 29     0.00090177194345     4.50950732645853    37.04186533054474
 29     4.74752511969250     4.50950751378726    37.04186104632605
  6     2.37419227185024     3.00633825820927    36.32106094399919
  6     7.12263409316284    -0.00000004180500    37.75916796839045
  6     2.37419483412629     4.50950744446505    39.45587302803763
  6     7.12262799439548     4.50950745346106    40.89399400418606
  7     3.62728517200207     3.00633830160180    36.26737054692109
  7     5.86963160770008     3.00633827567212    37.81326122860838
  7     8.37567421900061    -0.00000007831823    37.81325658931176
  7     1.12117361049849    -0.00000014023196    36.26737279698259
  7     3.62723469272957     4.50950745028600    39.40179550872502
  7     5.86960144512824     4.50950741218524    40.94766798777459
  7     8.37570671153972     4.50950746351543    40.94769678771512
  7     1.12118687908788     4.50950744234834    39.40177867453959
 29     9.44107320341625     0.00000002540051    46.39773539637306
 29     4.80417232830385     3.00633814337782    46.39772263314792
 29     0.00003003927355     4.50950747568651    43.30622838545268
 29     4.74838689113058     4.50950744340670    43.30620626478689
  6     2.37424140330838     3.00633830371851    42.59533245641109
  6     7.12265717375607    -0.00000002169627    44.02305130298959
  6     2.37418194019437     4.50950736826353    45.77684165271889
  6     7.12258274656889     4.50950736191340    47.13905838637907
  7     3.62696533782498     3.00633826350105    42.54052455030748
  7     5.86961250069853     3.00633827937636    44.07650651942738
  7     8.37566326238646    -0.00000001322943    44.07651012259501
  7     1.12143260993424    -0.00000000264589    42.54054361127063
  7     3.62712235634535     4.50950735820916    45.72526693946816
  7     5.87013026302781     4.50950740266005    47.18055770576616
  7     8.37517398989985     4.50950739207651    47.18060561958754
  7     1.12124755243017     4.50950740371840    45.72524439281472
