LatticeConstant 1.0 Ang
%block LatticeVectors
 9.49686684 0.00000000 0.00000000
 0.00000000 6.01267660 0.00000000
 0.00000000 0.00000000 77.21506057
%endblock LatticeVectors

NumberOfAtoms 96
AtomicCoordinatesFormat Ang
%block AtomicCoordinatesAndAtomicSpecies
 -0.00004668  3.00633823 33.90883787 1 #  1: Cu
  4.74846463 -0.00000003 33.90882982 1 #  2: Cu
  0.05581356  1.50316919 30.81731622 1 #  3: Cu
  4.69271972  1.50316914 30.81734806 1 #  4: Cu
  2.37424596  0.00000004 30.07600198 2 #  5: C
  7.12268795  3.00633833 31.43821864 2 #  6: C
  2.37420869  1.50316920 33.19199110 2 #  7: C
  7.12265237  1.50316921 34.61972299 2 #  8: C
  3.62679437  0.00000001 30.03448780 3 #  9: N
  5.86978233  0.00000001 31.48980786 3 # 10: N
  8.37564597  3.00633833 31.48979395 3 # 11: N
  1.12174728  3.00633831 30.03447479 3 # 12: N
  3.62726402  1.50316921 33.13853119 3 # 13: N
  5.86987587  1.50316920 34.67451635 3 # 14: N
  8.37540049  1.50316917 34.67451852 3 # 15: N
  1.12120758  1.50316912 33.13856168 3 # 16: N
  9.49595622  3.00633829 40.17317580 1 # 17: Cu
  4.74932536 -0.00000019 40.17318784 1 # 18: Cu
  0.00090177  1.50316903 37.04186533 1 # 19: Cu
  4.74752512  1.50316921 37.04186105 1 # 20: Cu
  2.37419227 -0.00000004 36.32106094 2 # 21: C
  7.12263409  3.00633826 37.75916797 2 # 22: C
  2.37419483  1.50316914 39.45587303 2 # 23: C
  7.12262799  1.50316915 40.89399400 2 # 24: C
  3.62728517  0.00000000 36.26737055 3 # 25: N
  5.86963161 -0.00000002 37.81326123 3 # 26: N
  8.37567422  3.00633822 37.81325659 3 # 27: N
  1.12117361  3.00633816 36.26737280 3 # 28: N
  3.62723469  1.50316915 39.40179551 3 # 29: N
  5.86960145  1.50316911 40.94766799 3 # 30: N
  8.37570671  1.50316916 40.94769679 3 # 31: N
  1.12118688  1.50316914 39.40177867 3 # 32: N
  9.44107320  3.00633833 46.39773540 1 # 33: Cu
  4.80417233 -0.00000016 46.39772263 1 # 34: Cu
  0.00003004  1.50316918 43.30622839 1 # 35: Cu
  4.74838689  1.50316914 43.30620626 1 # 36: Cu
  2.37424140  0.00000000 42.59533246 2 # 37: C
  7.12265717  3.00633828 44.02305130 2 # 38: C
  2.37418194  1.50316907 45.77684165 2 # 39: C
  7.12258275  1.50316906 47.13905839 2 # 40: C
  3.62696534 -0.00000004 42.54052455 3 # 41: N
  5.86961250 -0.00000002 44.07650652 3 # 42: N
  8.37566326  3.00633829 44.07651012 3 # 43: N
  1.12143261  3.00633830 42.54054361 3 # 44: N
  3.62712236  1.50316906 45.72526694 3 # 45: N
  5.87013026  1.50316910 47.18055771 3 # 46: N
  8.37517399  1.50316909 47.18060562 3 # 47: N
  1.12124755  1.50316910 45.72524439 3 # 48: N
 -0.00004668 -0.00000007 33.90883787 1 # 49: Cu
  4.74846463  3.00633827 33.90882982 1 # 50: Cu
  0.05581356  4.50950749 30.81731622 1 # 51: Cu
  4.69271972  4.50950744 30.81734806 1 # 52: Cu
  2.37424596  3.00633834 30.07600198 2 # 53: C
  7.12268795  0.00000003 31.43821864 2 # 54: C
  2.37420869  4.50950750 33.19199110 2 # 55: C
  7.12265237  4.50950751 34.61972299 2 # 56: C
  3.62679437  3.00633831 30.03448780 3 # 57: N
  5.86978233  3.00633831 31.48980786 3 # 58: N
  8.37564597  0.00000003 31.48979395 3 # 59: N
  1.12174728  0.00000001 30.03447479 3 # 60: N
  3.62726402  4.50950751 33.13853119 3 # 61: N
  5.86987587  4.50950750 34.67451635 3 # 62: N
  8.37540049  4.50950747 34.67451852 3 # 63: N
  1.12120758  4.50950742 33.13856168 3 # 64: N
  9.49595622 -0.00000001 40.17317580 1 # 65: Cu
  4.74932536  3.00633811 40.17318784 1 # 66: Cu
  0.00090177  4.50950733 37.04186533 1 # 67: Cu
  4.74752512  4.50950751 37.04186105 1 # 68: Cu
  2.37419227  3.00633826 36.32106094 2 # 69: C
  7.12263409 -0.00000004 37.75916797 2 # 70: C
  2.37419483  4.50950744 39.45587303 2 # 71: C
  7.12262799  4.50950745 40.89399400 2 # 72: C
  3.62728517  3.00633830 36.26737055 3 # 73: N
  5.86963161  3.00633828 37.81326123 3 # 74: N
  8.37567422 -0.00000008 37.81325659 3 # 75: N
  1.12117361 -0.00000014 36.26737280 3 # 76: N
  3.62723469  4.50950745 39.40179551 3 # 77: N
  5.86960145  4.50950741 40.94766799 3 # 78: N
  8.37570671  4.50950746 40.94769679 3 # 79: N
  1.12118688  4.50950744 39.40177867 3 # 80: N
  9.44107320  0.00000003 46.39773540 1 # 81: Cu
  4.80417233  3.00633814 46.39772263 1 # 82: Cu
  0.00003004  4.50950748 43.30622839 1 # 83: Cu
  4.74838689  4.50950744 43.30620626 1 # 84: Cu
  2.37424140  3.00633830 42.59533246 2 # 85: C
  7.12265717 -0.00000002 44.02305130 2 # 86: C
  2.37418194  4.50950737 45.77684165 2 # 87: C
  7.12258275  4.50950736 47.13905839 2 # 88: C
  3.62696534  3.00633826 42.54052455 3 # 89: N
  5.86961250  3.00633828 44.07650652 3 # 90: N
  8.37566326 -0.00000001 44.07651012 3 # 91: N
  1.12143261 -0.00000000 42.54054361 3 # 92: N
  3.62712236  4.50950736 45.72526694 3 # 93: N
  5.87013026  4.50950740 47.18055771 3 # 94: N
  8.37517399  4.50950739 47.18060562 3 # 95: N
  1.12124755  4.50950740 45.72524439 3 # 96: N
%endblock AtomicCoordinatesAndAtomicSpecies

NumberOfSpecies 3
%block ChemicalSpeciesLabel
 1 29 Cu
 2 6 C
 3 7 N
%endblock ChemicalSpeciesLabel
