CRYSTAL
PRIMVEC
 8.42000000000000 0.00000000000000 0.00000000000000
 0.00000000000000 8.42000000000000 0.00000000000000
 0.00000000000000 0.00000000000000 8.42000000000000
PRIMCOORD
 65 1
 12     0.00000000000000     0.00000000000000     0.00000000000000
  8     2.10500000000000     0.00000000000000     0.00000000000000
 12     0.00000000000000     2.10500000000000     2.10500000000000
  8     2.10500000000000     2.10500000000000     2.10500000000000
 12     2.10500000000000     0.00000000000000     2.10500000000000
  8     0.00000000000000     0.00000000000000     2.10500000000000
 12     2.10500000000000     2.10500000000000     0.00000000000000
  8     0.00000000000000     2.10500000000000     0.00000000000000
 12     0.00000000000000     0.00000000000000     4.21000000000000
  8     2.10500000000000     0.00000000000000     4.21000000000000
 12     0.00000000000000     2.10500000000000     6.31500000000000
  8     2.10500000000000     2.10500000000000     6.31500000000000
 12     2.10500000000000     0.00000000000000     6.31500000000000
  8     0.00000000000000     0.00000000000000     6.31500000000000
 12     2.10500000000000     2.10500000000000     4.21000000000000
  8     0.00000000000000     2.10500000000000     4.21000000000000
 12     0.00000000000000     4.21000000000000     0.00000000000000
  8     2.10500000000000     4.21000000000000     0.00000000000000
 12     0.00000000000000     6.31500000000000     2.10500000000000
  8     2.10500000000000     6.31500000000000     2.10500000000000
 12     2.10500000000000     4.21000000000000     2.10500000000000
  8     0.00000000000000     4.21000000000000     2.10500000000000
 12     2.10500000000000     6.31500000000000     0.00000000000000
  8     0.00000000000000     6.31500000000000     0.00000000000000
 12     0.00000000000000     4.21000000000000     4.21000000000000
  8     2.10500000000000     4.21000000000000     4.21000000000000
 12     0.00000000000000     6.31500000000000     6.31500000000000
  8     2.10500000000000     6.31500000000000     6.31500000000000
 12     2.10500000000000     4.21000000000000     6.31500000000000
  8     0.00000000000000     4.21000000000000     6.31500000000000
 12     2.10500000000000     6.31500000000000     4.21000000000000
  8     0.00000000000000     6.31500000000000     4.21000000000000
 12     4.21000000000000     0.00000000000000     0.00000000000000
  8     6.31500000000000     0.00000000000000     0.00000000000000
 12     4.21000000000000     2.10500000000000     2.10500000000000
  8     6.31500000000000     2.10500000000000     2.10500000000000
 12     6.31500000000000     0.00000000000000     2.10500000000000
  8     4.21000000000000     0.00000000000000     2.10500000000000
 12     6.31500000000000     2.10500000000000     0.00000000000000
  8     4.21000000000000     2.10500000000000     0.00000000000000
 12     4.21000000000000     0.00000000000000     4.21000000000000
  8     6.31500000000000     0.00000000000000     4.21000000000000
 12     4.21000000000000     2.10500000000000     6.31500000000000
  8     6.31500000000000     2.10500000000000     6.31500000000000
 12     6.31500000000000     0.00000000000000     6.31500000000000
  8     4.21000000000000     0.00000000000000     6.31500000000000
 12     6.31500000000000     2.10500000000000     4.21000000000000
  8     4.21000000000000     2.10500000000000     4.21000000000000
 12     4.21000000000000     4.21000000000000     0.00000000000000
  8     6.31500000000000     4.21000000000000     0.00000000000000
 12     4.21000000000000     6.31500000000000     2.10500000000000
  8     6.31500000000000     6.31500000000000     2.10500000000000
 12     6.31500000000000     4.21000000000000     2.10500000000000
  8     4.21000000000000     4.21000000000000     2.10500000000000
 12     6.31500000000000     6.31500000000000     0.00000000000000
  8     4.21000000000000     6.31500000000000     0.00000000000000
 12     4.21000000000000     4.21000000000000     4.21000000000000
  8     6.31500000000000     4.21000000000000     4.21000000000000
 12     4.21000000000000     6.31500000000000     6.31500000000000
  8     6.31500000000000     6.31500000000000     6.31500000000000
 12     6.31500000000000     4.21000000000000     6.31500000000000
  8     4.21000000000000     4.21000000000000     6.31500000000000
 12     6.31500000000000     6.31500000000000     4.21000000000000
  8     4.21000000000000     6.31500000000000     4.21000000000000
  3     1.05250000000000     1.05250000000000     1.05250000000000
