65
Lattice="8.42 0.0 0.0 0.0 8.42 0.0 0.0 0.0 8.42" Properties=species:S:1:pos:R:3 pbc="T T T"
Mg      -0.01381885      -0.01381884      -0.01381885
O        2.10213493       0.00286507       0.00286507
Mg      -0.01381887       2.11881887       2.11881887
O        2.10213493       2.10213493       2.10213493
Mg       2.11881886      -0.01381887       2.11881886
O        0.00286507       0.00286507       2.10213493
Mg       2.11881887       2.11881888      -0.01381887
O        0.00286507       2.10213493       0.00286507
Mg      -0.00016154      -0.00016155       4.21143385
O        2.10456526       0.00043474       4.20923831
Mg      -0.00016155       2.10516155       6.31356616
O        2.10456526       2.10456525       6.31576170
Mg       2.10516156      -0.00016156       6.31356616
O        0.00043474       0.00043475       6.31576170
Mg       2.10516157       2.10516156       4.21143385
O        0.00043475       2.10456526       4.20923830
Mg      -0.00016156       4.21143384      -0.00016156
O        2.10456526       4.20923831       0.00043474
Mg      -0.00016155       6.31356616       2.10516156
O        2.10456525       6.31576169       2.10456525
Mg       2.10516154       4.21143384       2.10516156
O        0.00043474       4.20923830       2.10456526
Mg       2.10516154       6.31356614      -0.00016155
O        0.00043475       6.31576169       0.00043475
Mg      -0.00015962       4.21022763       4.21022763
O        2.10485767       4.20944852       4.20944852
Mg      -0.00015961       6.31477238       6.31477237
O        2.10485767       6.31555148       6.31555149
Mg       2.10515963       4.21022762       6.31477237
O        0.00014233       4.20944852       6.31555148
Mg       2.10515962       6.31477237       4.21022763
O        0.00014233       6.31555147       4.20944852
Mg       4.21143385      -0.00016155      -0.00016155
O        6.31576169       0.00043474       0.00043474
Mg       4.21143384       2.10516155       2.10516155
O        6.31576169       2.10456526       2.10456525
Mg       6.31356614      -0.00016156       2.10516156
O        4.20923831       0.00043475       2.10456526
Mg       6.31356615       2.10516155      -0.00016155
O        4.20923831       2.10456525       0.00043475
Mg       4.21022763      -0.00015962       4.21022763
O        6.31555148       0.00014233       4.20944852
Mg       4.21022762       2.10515960       6.31477236
O        6.31555149       2.10485767       6.31555148
Mg       6.31477238      -0.00015961       6.31477237
O        4.20944853       0.00014232       6.31555148
Mg       6.31477238       2.10515962       4.21022763
O        4.20944852       2.10485767       4.20944851
Mg       4.21022763       4.21022763      -0.00015962
O        6.31555147       4.20944852       0.00014233
Mg       4.21022764       6.31477237       2.10515961
O        6.31555148       6.31555148       2.10485767
Mg       6.31477238       4.21022763       2.10515962
O        4.20944852       4.20944852       2.10485767
Mg       6.31477237       6.31477237      -0.00015961
O        4.20944853       6.31555148       0.00014233
Mg       4.21017196       4.21017196       4.21017196
O        6.31516647       4.20983353       4.20983353
Mg       4.21017196       6.31482804       6.31482804
O        6.31516647       6.31516647       6.31516648
Mg       6.31482805       4.21017195       6.31482803
O        4.20983353       4.20983353       6.31516647
Mg       6.31482803       6.31482804       4.21017197
O        4.20983353       6.31516647       4.20983353
Li       1.05250000       1.05250000       1.05250000
