65
Lattice="8.42 0.0 0.0 0.0 8.42 0.0 0.0 0.0 8.42" Properties=species:S:1:pos:R:3 pbc="T T T"
Mg      -0.01117721      -0.01017286      -0.01017286
O        2.11929122      -0.04517174      -0.04517174
Mg      -0.01103723       2.11510209       2.11510209
O        2.11832890       2.14694401       2.14694401
Mg       2.12309884      -0.05951280       2.16329939
O        0.00038220       0.00078711       2.10422485
Mg       2.12309885       2.16329940      -0.05951280
O        0.00038220       2.10422484       0.00078711
Mg      -0.00048088      -0.00027282       4.21149382
O        2.10500365       0.00006435       4.21157185
Mg      -0.00022617       2.10517878       6.31410759
O        2.10488275       2.10459757       6.31598677
Mg       2.10505485      -0.00019093       6.31379389
O        0.00043401       0.00031466       6.31579866
Mg       2.10517376       2.10553924       4.21373136
O        0.00018482       2.10478833       4.20978512
Mg      -0.00048090       4.21149381      -0.00027282
O        2.10500365       4.21157185       0.00006434
Mg      -0.00022617       6.31410759       2.10517878
O        2.10488274       6.31598676       2.10459757
Mg       2.10517374       4.21373136       2.10553924
O        0.00018481       4.20978512       2.10478833
Mg       2.10505483       6.31379387      -0.00019092
O        0.00043401       6.31579865       0.00031466
Mg      -0.00028153       4.21036975       4.21036975
O        2.10498113       4.20992179       4.20992179
Mg      -0.00017306       6.31481490       6.31481489
O        2.10496040       6.31558486       6.31558487
Mg       2.10504981       4.21028686       6.31488154
O        0.00012620       4.20961968       6.31547577
Mg       2.10504980       6.31488154       4.21028686
O        0.00012620       6.31547576       4.20961968
Mg       4.21690402      -0.00527553      -0.00527553
O        6.31526831       0.00043969       0.00043969
Mg       4.21681200       2.11024866       2.11024867
O        6.31526130       2.10456190       2.10456189
Mg       6.31462454      -0.00015574       2.10515959
O        4.20946092       0.00107731       2.10393773
Mg       6.31462453       2.10515959      -0.00015573
O        4.20946092       2.10393773       0.00107731
Mg       4.21057221      -0.00023812       4.21105943
O        6.31521973       0.00013537       4.20947761
Mg       4.21025889       2.10517789       6.31445382
O        6.31518615       2.10486245       6.31557896
Mg       6.31496308      -0.00016392       6.31479945
O        4.20954557       0.00023065       6.31573929
Mg       6.31499777       2.10516730       4.21025799
O        4.20985454       2.10483568       4.20978187
Mg       4.21057221       4.21105943      -0.00023813
O        6.31521972       4.20947761       0.00013537
Mg       4.21025890       6.31445383       2.10517789
O        6.31518614       6.31557896       2.10486245
Mg       6.31499777       4.21025799       2.10516730
O        4.20985455       4.20978188       2.10483568
Mg       6.31496307       6.31479945      -0.00016392
O        4.20954557       6.31573929       0.00023065
Mg       4.21031863       4.21035603       4.21035604
O        6.31509411       4.20985780       4.20985780
Mg       4.21017952       6.31483186       6.31483186
O        6.31505782       6.31517675       6.31517676
Mg       6.31497082       4.21018317       6.31484773
O        4.20987402       4.20973204       6.31536826
Mg       6.31497081       6.31484774       4.21018319
O        4.20987402       6.31536826       4.20973204
Li       1.74956057       1.04825361       1.04825361
