Si2
   1.00000000000000
     3.3294085465396401    0.0000000032454955    1.9222347577431924
     1.1098025205129833    3.1389971553704812    1.9222347577431931
     0.0000000033599839    0.0000000023758681    3.8444705038470586
   Si
     2
Direct
  0.2500000000000000  0.2500000000000000  0.2500000000000000
 -0.0000000000000000 -0.0000000000000000 -0.0000000000000000

  0.00000000E+00  0.00000000E+00  0.00000000E+00
  0.00000000E+00  0.00000000E+00  0.00000000E+00
