65
Lattice="8.419999999815325 0.0 0.0 0.0 8.419999999815325 0.0 0.0 0.0 8.419999999815325" Properties=species:S:1:pos:R:3 pbc="T T T"
Mg      -0.08213521      -0.08159218      -0.08159213
O        2.10098579      -0.03167375      -0.03167376
Mg      -0.08208157       2.18645029       2.18645030
O        2.09998684       2.13325532       2.13325529
Mg       2.19836712      -0.11731827       2.22118741
O        0.01757565       0.01809907       2.08688154
Mg       2.19836712       2.22118736      -0.11731823
O        0.01757562       2.08688157       0.01809904
Mg      -0.00034849      -0.00020137       4.20992809
O        2.10941380      -0.00467379       4.22568941
Mg      -0.00011298       2.10509044       6.31570580
O        2.10932129       2.10934317       6.30168976
Mg       2.10508156      -0.00010141       6.31580790
O       -0.00434922      -0.00432678       6.30157429
Mg       2.10523091       2.10547088       4.21184185
O       -0.00462006       2.10943297       4.22408550
Mg      -0.00034849       4.20992811      -0.00020136
O        2.10941377       4.22568943      -0.00467375
Mg      -0.00011291       6.31570583       2.10509046
O        2.10932130       6.30168979       2.10934319
Mg       2.10523090       4.21184185       2.10547091
O       -0.00462005       4.22408550       2.10943295
Mg       2.10508158       6.31580787      -0.00010138
O       -0.00434921       6.30157429      -0.00432674
Mg      -0.00067027       4.21777452       4.21777453
O        2.10169245       4.20489389       4.20489387
Mg      -0.00054917       6.30741691       6.30741688
O        2.10166644       6.32063758       6.32063758
Mg       2.10554691       4.21767547       6.30750775
O        0.00330168       4.20442838       6.32066117
Mg       2.10554691       6.30750778       4.21767543
O        0.00330164       6.32066121       4.20442840
Mg       4.21060905      -0.00035667      -0.00035669
O        6.30151839      -0.00430633      -0.00430625
Mg       4.21051833       2.10534845       2.10534843
O        6.30150085       2.10931054       2.10931055
Mg       6.31563415      -0.00006756       2.10507381
O        4.22454797      -0.00456263       2.10957149
Mg       6.31563416       2.10507384      -0.00006754
O        4.22454796       2.10957152      -0.00456262
Mg       4.21795382      -0.00062459       4.21799430
O        6.32065799       0.00331992       4.20442311
Mg       4.21767041       2.10555947       6.30750827
O        6.32063147       2.10166958       6.32063069
Mg       6.30742080      -0.00054424       6.30742013
O        4.20444544       0.00331082       6.32070375
Mg       6.30745801       2.10555029       4.21764489
O        4.20477703       2.10174924       4.20481599
Mg       4.21795387       4.21799429      -0.00062456
O        6.32065794       4.20442310       0.00331986
Mg       4.21767041       6.30750821       2.10555951
O        6.32063151       6.32063074       2.10166958
Mg       6.30745801       4.21764489       2.10555028
O        4.20477701       4.20481601       2.10174920
Mg       6.30742082       6.30742015      -0.00054422
O        4.20444543       6.32070372       0.00331083
Mg       4.21017184       4.21018328       4.21018328
O        6.31622766       4.20884747       4.20884744
Mg       4.21002304       6.31501658       6.31501657
O        6.31618856       6.31618853       6.31618851
Mg       6.31501258       4.21002198       6.31501226
O        4.20885570       4.20885883       6.31624621
Mg       6.31501260       6.31501226       4.21002204
O        4.20885569       6.31624623       4.20885884
Li       1.75407577       1.04834034       1.04834036
