65
Lattice="8.419999999815325 0.0 0.0 0.0 8.419999999815325 0.0 0.0 0.0 8.419999999815325" Properties=species:S:1:pos:R:3 pbc="T T T"
Mg      -0.06336252      -0.06259940      -0.06259936
O        2.08916362      -0.04842619      -0.04842620
Mg      -0.06334144       2.16742573       2.16742575
O        2.08896964       2.14906782       2.14906779
Mg       2.16954151      -0.11509977       2.21839280
O        0.01383491       0.01434544       2.09065327
Mg       2.16954150       2.21839276      -0.11509974
O        0.01383488       2.09065329       0.01434542
Mg      -0.00043226      -0.00016762       4.21004322
O        2.10828518      -0.00371887       4.22328914
Mg      -0.00011055       2.10507134       6.31559820
O        2.10832383       2.10836026       6.30485046
Mg       2.10505172      -0.00008682       6.31573482
O       -0.00338018      -0.00334198       6.30470144
Mg       2.10508264       2.10549988       4.21247449
O       -0.00372491       2.10842409       4.22103058
Mg      -0.00043226       4.21004324      -0.00016761
O        2.10828516       4.22328916      -0.00371884
Mg      -0.00011050       6.31559822       2.10507136
O        2.10832384       6.30485048       2.10836027
Mg       2.10508264       4.21247449       2.10549990
O       -0.00372490       4.22103058       2.10842408
Mg       2.10505173       6.31573481      -0.00008679
O       -0.00338017       6.30470144      -0.00334195
Mg      -0.00059441       4.21606488       4.21606489
O        2.10244212       4.20629059       4.20629058
Mg      -0.00043430       6.30916861       6.30916858
O        2.10243405       6.31936025       6.31936025
Mg       2.10542167       4.21593649       6.30927752
O        0.00252835       4.20572390       6.31939601
Mg       2.10542166       6.30927755       4.21593646
O        0.00252832       6.31939604       4.20572392
Mg       4.21097623      -0.00070952      -0.00070954
O        6.30459483      -0.00331227      -0.00331220
Mg       4.21084233       2.10566579       2.10566577
O        6.30458193       2.10831386       2.10831388
Mg       6.31548005      -0.00004034       2.10504466
O        4.22179250      -0.00392520       2.10893318
Mg       6.31548005       2.10504468      -0.00004032
O        4.22179249       2.10893321      -0.00392519
Mg       4.21626758      -0.00052280       4.21637533
O        6.31938034       0.00255759       4.20571336
Mg       4.21592418       2.10544159       6.30927617
O        6.31934865       2.10243893       6.31934871
Mg       6.30916966      -0.00042576       6.30916984
O        4.20574080       0.00254521       6.31945028
Mg       6.30920127       2.10542854       4.21589327
O        4.20608912       2.10254787       4.20619487
Mg       4.21626762       4.21637532      -0.00052277
O        6.31938031       4.20571335       0.00255754
Mg       4.21592419       6.30927612       2.10544163
O        6.31934868       6.31934875       2.10243893
Mg       6.30920127       4.21589327       2.10542854
O        4.20608910       4.20619489       2.10254784
Mg       6.30916967       6.30916985      -0.00042574
O        4.20574080       6.31945026       0.00254522
Mg       4.21018062       4.21020776       4.21020775
O        6.31595608       4.20912087       4.20912084
Mg       4.21002184       6.31502193       6.31502193
O        6.31591816       6.31591836       6.31591834
Mg       6.31501506       4.21002056       6.31501525
O        4.20913091       4.20913709       6.31598504
Mg       6.31501508       6.31501525       4.21002060
O        4.20913090       6.31598506       4.20913710
Li       2.11292149       1.04792934       1.04792936
