65
Lattice="8.419999999815325 0.0 0.0 0.0 8.419999999815325 0.0 0.0 0.0 8.419999999815325" Properties=species:S:1:pos:R:3 pbc="T T T"
Mg      -0.02349061      -0.02299228      -0.02299226
O        2.08705632      -0.01361564      -0.01361564
Mg      -0.02350771       2.12786174       2.12786175
O        2.08758014       2.11749776       2.11749775
Mg       2.11533944      -0.04356870       2.14790223
O        0.00495880       0.00543169       2.09958061
Mg       2.11533944       2.14790221      -0.04356869
O        0.00495879       2.09958062       0.00543168
Mg      -0.00022903      -0.00006564       4.21003644
O        2.10607281      -0.00143866       4.21510421
Mg      -0.00004573       2.10502308       6.31524318
O        2.10621719       2.10624586       6.31127830
Mg       2.10500315      -0.00003177       6.31530859
O       -0.00126088      -0.00123809       6.31121244
Mg       2.10487675       2.10524299       4.21090799
O       -0.00141669       2.10627060       4.21413416
Mg      -0.00022902       4.21003645      -0.00006564
O        2.10607280       4.21510422      -0.00143865
Mg      -0.00004571       6.31524319       2.10502309
O        2.10621719       6.31127831       2.10624586
Mg       2.10487675       4.21090799       2.10524300
O       -0.00141668       4.21413416       2.10627059
Mg       2.10500315       6.31530858      -0.00003176
O       -0.00126088       6.31121244      -0.00123808
Mg      -0.00023486       4.21225374       4.21225375
O        2.10403477       4.20863083       4.20863083
Mg      -0.00016855       6.31284966       6.31284965
O        2.10405501       6.31661434       6.31661434
Mg       2.10515440       4.21219171       6.31289428
O        0.00093002       4.20842689       6.31663565
Mg       2.10515440       6.31289429       4.21219170
O        0.00093001       6.31663567       4.20842689
Mg       4.21194905      -0.00182347      -0.00182348
O        6.31120239      -0.00123196      -0.00123194
Mg       4.21177804       2.10668107       2.10668107
O        6.31119747       2.10622996       2.10622996
Mg       6.31523027      -0.00001692       2.10501797
O        4.21593743      -0.00297443       2.10795496
Mg       6.31523027       2.10501798      -0.00001692
O        4.21593743       2.10795497      -0.00297443
Mg       4.21232917      -0.00025705       4.21255298
O        6.31664121       0.00093959       4.20844270
Mg       4.21218014       2.10517096       6.31290929
O        6.31660930       2.10405979       6.31661465
Mg       6.31285005      -0.00016485       6.31285553
O        4.20842828       0.00093690       6.31667423
Mg       6.31287348       2.10516726       4.21219223
O        4.20855547       2.10416176       4.20877469
Mg       4.21232918       4.21255298      -0.00025704
O        6.31664120       4.20844270       0.00093958
Mg       4.21218014       6.31290927       2.10517097
O        6.31660931       6.31661466       2.10405979
Mg       6.31287349       4.21219223       2.10516726
O        4.20855547       4.20877469       2.10416175
Mg       6.31285005       6.31285553      -0.00016485
O        4.20842828       6.31667422       0.00093690
Mg       4.21005120       4.21010247       4.21010247
O        6.31535467       4.20968623       4.20968622
Mg       4.21000714       6.31500969       6.31500969
O        6.31533790       6.31533928       6.31533928
Mg       6.31500516       4.21000962       6.31500837
O        4.20967908       4.20968843       6.31536915
Mg       6.31500516       6.31500837       4.21000964
O        4.20967908       6.31536916       4.20968844
Li       2.81595142       1.04959072       1.04959072
