65
Lattice="8.419999999815325 0.0 0.0 0.0 8.419999999815325 0.0 0.0 0.0 8.419999999815325" Properties=species:S:1:pos:R:3 pbc="T T T"
Mg      -0.10383204      -0.10357644      -0.10357637
O        2.09417100       0.00272355       0.00272354
Mg      -0.10377897       2.20844604       2.20844606
O        2.09346232       2.10095419       2.10095415
Mg       2.21621258      -0.11592024       2.22047878
O        0.02241907       0.02284325       2.08213363
Mg       2.21621257       2.22047871      -0.11592019
O        0.02241902       2.08213367       0.02284321
Mg      -0.00023628      -0.00019492       4.20965184
O        2.11061924      -0.00569601       4.22824025
Mg      -0.00010425       2.10509860       6.31582936
O        2.11049081       2.11049772       6.29790818
Mg       2.10509743      -0.00010260       6.31587261
O       -0.00549615      -0.00548944       6.29786037
Mg       2.10525385       2.10532197       4.21042997
O       -0.00563825       2.11058307       4.22761338
Mg      -0.00023628       4.20965187      -0.00019491
O        2.11061920       4.22824029      -0.00569596
Mg      -0.00010416       6.31582941       2.10509863
O        2.11049083       6.29790821       2.11049774
Mg       2.10525385       4.21042997       2.10532202
O       -0.00563823       4.22761338       2.11058305
Mg       2.10509745       6.31587258      -0.00010255
O       -0.00549613       6.29786037      -0.00548939
Mg      -0.00074742       4.21977352       4.21977353
O        2.10079205       4.20311670       4.20311668
Mg      -0.00069315       6.30534194       6.30534190
O        2.10076318       6.32214162       6.32214162
Mg       2.10569606       4.21970864       6.30538784
O        0.00422215       4.20289456       6.32215625
Mg       2.10569606       6.30538788       4.21970859
O        0.00422211       6.32215631       4.20289458
Mg       4.20991605      -0.00019370      -0.00019373
O        6.29783356      -0.00548000      -0.00547990
Mg       4.20987543       2.10519541       2.10519538
O        6.29782339       2.11048264       2.11048266
Mg       6.31579435      -0.00008728       2.10509097
O        4.22774604      -0.00557118       2.11057626
Mg       6.31579436       2.10509101      -0.00008725
O        4.22774602       2.11057630      -0.00557116
Mg       4.21984923      -0.00073542       4.21985615
O        6.32215433       0.00422827       4.20289163
Mg       4.21970752       2.10570007       6.30538836
O        6.32213924       2.10076407       6.32213875
Mg       6.30534383      -0.00069170       6.30534338
O        4.20290258       0.00422421       6.32217387
Mg       6.30536666       2.10569589       4.21969500
O        4.20307900       2.10080524       4.20308535
Mg       4.21984930       4.21985614      -0.00073538
O        6.32215427       4.20289162       0.00422819
Mg       4.21970753       6.30538828       2.10570012
O        6.32213929       6.32213880       2.10076407
Mg       6.30536666       4.21969499       2.10569588
O        4.20307896       4.20308538       2.10080519
Mg       6.30534385       6.30534339      -0.00069168
O        4.20290257       6.32217385       0.00422423
Mg       4.21009679       4.21009925       4.21009925
O        6.31652424       4.20851765       4.20851761
Mg       4.21001963       6.31500175       6.31500175
O        6.31650238       6.31650234       6.31650231
Mg       6.31500017       4.21001901       6.31499995
O        4.20852169       4.20852255       6.31653190
Mg       6.31500019       6.31499995       4.21001908
O        4.20852168       6.31653193       4.20852256
Li       1.40054840       1.04970118       1.04970120
