65
Lattice="8.419999999815325 0.0 0.0 0.0 8.419999999815325 0.0 0.0 0.0 8.419999999815325" Properties=species:S:1:pos:R:3 pbc="T T T"
Mg      -0.04513564      -0.04430634      -0.04430631
O        2.07888195      -0.03672367      -0.03672367
Mg      -0.04514264       2.14910827       2.14910828
O        2.07954424       2.13858863       2.13858861
Mg       2.13681836      -0.08952575       2.19304137
O        0.00975012       0.01039675       2.09461973
Mg       2.13681836       2.19304134      -0.08952572
O        0.00975010       2.09461975       0.01039674
Mg      -0.00040859      -0.00012203       4.21006970
O        2.10720941      -0.00270707       4.21989557
Mg      -0.00008621       2.10504667       6.31545803
O        2.10735350       2.10739414       6.30782866
Mg       2.10502091      -0.00006099       6.31557766
O       -0.00241941      -0.00238000       6.30770540
Mg       2.10492370       2.10542125       4.21194213
O       -0.00271986       2.10743819       4.21793610
Mg      -0.00040859       4.21006971      -0.00012202
O        2.10720940       4.21989558      -0.00270705
Mg      -0.00008617       6.31545805       2.10504668
O        2.10735351       6.30782867       2.10739415
Mg       2.10492370       4.21194213       2.10542127
O       -0.00271985       4.21793610       2.10743819
Mg       2.10502092       6.31557764      -0.00006097
O       -0.00241940       6.30770539      -0.00237998
Mg      -0.00045261       4.21434047       4.21434048
O        2.10316836       4.20740460       4.20740459
Mg      -0.00031892       6.31086096       6.31086094
O        2.10318028       6.31810490       6.31810490
Mg       2.10530005       4.21422039       6.31094784
O        0.00179118       4.20697043       6.31814297
Mg       2.10530005       6.31094786       4.21422037
O        0.00179116       6.31814300       4.20697044
Mg       4.21155495      -0.00135854      -0.00135855
O        6.30760959      -0.00235585      -0.00235580
Mg       4.21137714       2.10625385       2.10625383
O        6.30760438       2.10735387       2.10735388
Mg       6.31535765      -0.00002259       2.10502383
O        4.21927561      -0.00361837       2.10861613
Mg       6.31535765       2.10502385      -0.00002257
O        4.21927560       2.10861615      -0.00361837
Mg       4.21448437      -0.00041687       4.21468231
O        6.31812753       0.00181654       4.20696773
Mg       4.21420434       2.10532201       6.31095345
O        6.31809313       2.10318582       6.31809620
Mg       6.31085933      -0.00031089       6.31086254
O        4.20697877       0.00180696       6.31819423
Mg       6.31088303       2.10531096       4.21419054
O        4.20722649       2.10330975       4.20742176
Mg       4.21448440       4.21468231      -0.00041685
O        6.31812750       4.20696773       0.00181650
Mg       4.21420434       6.31095341       2.10532203
O        6.31809315       6.31809622       2.10318582
Mg       6.31088304       4.21419053       2.10531096
O        4.20722647       4.20742177       2.10330973
Mg       6.31085933       6.31086255      -0.00031088
O        4.20697877       6.31819422       0.00180696
Mg       4.21012045       4.21016782       4.21016782
O        6.31567722       4.20938196       4.20938194
Mg       4.21001531       6.31501733       6.31501733
O        6.31565116       6.31565207       6.31565206
Mg       6.31500992       4.21001566       6.31501186
O        4.20938487       4.20939428       6.31570508
Mg       6.31500992       6.31501186       4.21001569
O        4.20938486       6.31570510       4.20939429
Li       2.46838002       1.04823362       1.04823363
