65
Lattice="8.419999999815325 0.0 0.0 0.0 8.419999999815325 0.0 0.0 0.0 8.419999999815325" Properties=species:S:1:pos:R:3 pbc="T T T"
Mg      -0.12517049      -0.12517065      -0.12517057
O        2.07462042       0.03037955       0.03037954
Mg      -0.12517063       2.23017055       2.23017057
O        2.07462050       2.07462046       2.07462042
Mg       2.23017061      -0.12517056       2.23017059
O        0.03037957       0.03037959       2.07462042
Mg       2.23017060       2.23017050      -0.12517049
O        0.03037951       2.07462047       0.03037954
Mg      -0.00009795      -0.00009792       4.20906181
O        2.11171462      -0.00671468       4.23109867
Mg      -0.00009797       2.10509793       6.31593812
O        2.11171461       2.11171462       6.29390128
Mg       2.10509790      -0.00009795       6.31593823
O       -0.00671462      -0.00671465       6.29390134
Mg       2.10509794       2.10509790       4.20906185
O       -0.00671466       2.11171465       4.23109871
Mg      -0.00009795       4.20906185      -0.00009789
O        2.11171457       4.23109871      -0.00671461
Mg      -0.00009786       6.31593818       2.10509797
O        2.11171462       6.29390133       2.11171465
Mg       2.10509793       4.20906185       2.10509795
O       -0.00671465       4.23109871       2.11171463
Mg       2.10509793       6.31593820      -0.00009789
O       -0.00671459       6.29390134      -0.00671459
Mg      -0.00084905       4.22185595       4.22185597
O        2.09980661       4.20126756       4.20126753
Mg      -0.00084902       6.30314414       6.30314409
O        2.09980659       6.32373242       6.32373242
Mg       2.10584897       4.22185596       6.30314403
O        0.00519344       4.20126754       6.32373241
Mg       2.10584897       6.30314408       4.22185589
O        0.00519338       6.32373248       4.20126757
Mg       4.20906183      -0.00009790      -0.00009793
O        6.29390128      -0.00671467      -0.00671455
Mg       4.20906185       2.10509796       2.10509793
O        6.29390131       2.11171464       2.11171466
Mg       6.31593818      -0.00009795       2.10509793
O        4.23109873      -0.00671467       2.11171457
Mg       6.31593819       2.10509798      -0.00009792
O        4.23109871       2.11171462      -0.00671465
Mg       4.22185588      -0.00084896       4.22185591
O        6.32373248       0.00519348       4.20126761
Mg       4.22185591       2.10584897       6.30314416
O        6.32373240       2.09980661       6.32373240
Mg       6.30314412      -0.00084900       6.30314408
O        4.20126752       0.00519340       6.32373243
Mg       6.30314410       2.10584893       4.22185591
O        4.20126760       2.09980662       4.20126758
Mg       4.22185597       4.22185590      -0.00084891
O        6.32373241       4.20126760       0.00519339
Mg       4.22185592       6.30314405       2.10584903
O        6.32373246       6.32373247       2.09980661
Mg       6.30314411       4.22185590       2.10584892
O        4.20126756       4.20126762       2.09980656
Mg       6.30314415       6.30314410      -0.00084897
O        4.20126751       6.32373240       0.00519342
Mg       4.21001475       4.21001474       4.21001474
O        6.31683317       4.20816682       4.20816678
Mg       4.21001474       6.31498525       6.31498525
O        6.31683320       6.31683321       6.31683318
Mg       6.31498525       4.21001473       6.31498527
O        4.20816679       4.20816677       6.31683319
Mg       6.31498528       6.31498527       4.21001482
O        4.20816677       6.31683323       4.20816679
Li       1.05250000       1.05249999       1.05250001
