pymatgen with grid density = 691 / number of atoms
0
Gamma
4 4 4
