LatticeConstant 1.0 Ang
%block LatticeVectors
 10.23933764 0.00000000 5.91119922
 3.41311256 9.65360864 5.91119922
 0.00000000 0.00000000 11.82239841
%endblock LatticeVectors

NumberOfAtoms 16
AtomicCoordinatesFormat Ang
%block AtomicCoordinatesAndAtomicSpecies
  5.11678198  3.61193815  8.86179908 1 #  1: Si
 10.23933764  3.62010325 11.82239843 1 #  2: Si
  6.82622510  8.44690756 11.82239843 1 #  3: Si
 11.94589392  8.44690756 14.77799804 1 #  4: Si
  5.11966882  3.62010325 14.77799802 1 #  5: Si
 10.23933764  3.62010325 17.73359763 1 #  6: Si
  6.82622510  8.44690756 17.73359763 1 #  7: Si
 11.94589392  8.44690756 20.68919724 1 #  8: Si
  3.41311256  2.41340216  5.91119921 1 #  9: Si
  8.53278138  2.41340216  8.86679882 1 # 10: Si
  5.11966884  7.24020648  8.86679882 1 # 11: Si
 10.23933766  7.24020648 11.82239843 1 # 12: Si
  3.41311256  2.41340216 11.82239841 1 # 13: Si
  8.53278138  2.41340216 14.77799802 1 # 14: Si
  5.11966884  7.24020648 14.77799802 1 # 15: Si
 10.23933766  7.24020648 17.73359763 1 # 16: Si
%endblock AtomicCoordinatesAndAtomicSpecies

NumberOfSpecies 1
%block ChemicalSpeciesLabel
 1 14 Si
%endblock ChemicalSpeciesLabel
