# 
# This is the geometry file that corresponds to the current relaxation step.
# If you do not want this file to be written, set the "write_restart_geometry" flag to .false.
#  aims_uuid : D7D72952-5D72-4CD9-A074-59F2A1D0A871                                
# 
lattice_vector     -0.00000003      2.73899405      2.73899405
lattice_vector      2.73899410      0.00000002      2.73899408
lattice_vector      2.73899409      2.73899408      0.00000002
atom_frac      -0.00000000      0.00000000      0.00000000 Si
atom_frac       0.25000000      0.25000000      0.25000000 Si
# 
# What follows is the current estimated Hessian matrix constructed by the BFGS algorithm.
# This is NOT the true Hessian matrix of the system.
# If you do not want this information here, switch it off using the "hessian_to_restart_geometry" keyword.
# 
trust_radius             0.2000000030
hessian_file
