LatticeConstant 1.0 Ang
%block LatticeVectors
 8.42000000 0.00000000 0.00000000
 0.00000000 8.42000000 0.00000000
 0.00000000 0.00000000 8.42000000
%endblock LatticeVectors

NumberOfAtoms 65
AtomicCoordinatesFormat Ang
%block AtomicCoordinatesAndAtomicSpecies
 -0.00373954 -0.00165987 -0.00165987 1 #  1: Mg
  2.10500043 -0.00818906 -0.00818906 2 #  2: O
 -0.00372207  2.10665956  2.10665955 1 #  3: Mg
  2.10499985  2.11286690  2.11286690 2 #  4: O
  2.10500016 -0.05969361  2.16328996 1 #  5: Mg
  0.00271456  0.00116204  2.10383332 2 #  6: O
  2.10500017  2.16329001 -0.05969361 1 #  7: Mg
  0.00271456  2.10383332  0.00116204 2 #  8: O
 -0.00052557 -0.00011693  4.21072697 1 #  9: Mg
  2.10499997  0.00043192  4.20941627 2 # 10: O
 -0.00053388  2.10511865  6.31426920 1 # 11: Mg
  2.10499997  2.10456347  6.31556754 2 # 12: O
  2.10500003 -0.00047973  6.31343388 1 # 13: Mg
  0.00071232  0.00027187  6.31556188 2 # 14: O
  2.10499996  2.10546556  4.21158323 1 # 15: Mg
  0.00071154  2.10472901  4.20944268 2 # 16: O
 -0.00052557  4.21072697 -0.00011693 1 # 17: Mg
  2.10499998  4.20941627  0.00043193 2 # 18: O
 -0.00053388  6.31426921  2.10511866 1 # 19: Mg
  2.10499997  6.31556754  2.10456346 2 # 20: O
  2.10499997  4.21158323  2.10546556 1 # 21: Mg
  0.00071154  4.20944269  2.10472901 2 # 22: O
  2.10500003  6.31343389 -0.00047973 1 # 23: Mg
  0.00071230  6.31556188  0.00027188 2 # 24: O
 -0.00020798  4.21015272  4.21015272 1 # 25: Mg
  2.10500000  4.20951988  4.20951989 2 # 26: O
 -0.00021009  6.31484227  6.31484227 1 # 27: Mg
  2.10499998  6.31548188  6.31548189 2 # 28: O
  2.10499998  4.21061482  6.31438873 1 # 29: Mg
  0.00029528  4.20969763  6.31530218 2 # 30: O
  2.10499998  6.31438873  4.21061481 1 # 31: Mg
  0.00029527  6.31530217  4.20969762 2 # 32: O
  4.21373943 -0.00165993 -0.00165993 1 # 33: Mg
  6.31499997  0.00036137  0.00036137 2 # 34: O
  4.21372173  2.10665948  2.10665948 1 # 35: Mg
  6.31500001  2.10463827  2.10463827 2 # 36: O
  6.31500007 -0.00007237  2.10507146 1 # 37: Mg
  4.20728554  0.00116207  2.10383337 2 # 38: O
  6.31500006  2.10507146 -0.00007237 1 # 39: Mg
  4.20728554  2.10383338  0.00116207 2 # 40: O
  4.21052576 -0.00011690  4.21072695 1 # 41: Mg
  6.31499991  0.00011647  4.20958414 2 # 42: O
  4.21053395  2.10511863  6.31426919 1 # 43: Mg
  6.31499996  2.10488311  6.31541690 2 # 44: O
  6.31499929 -0.00013238  6.31488746 1 # 45: Mg
  4.20928781  0.00027189  6.31556180 2 # 46: O
  6.31499866  2.10513298  4.21011238 1 # 47: Mg
  4.20928859  2.10472902  4.20944268 2 # 48: O
  4.21052577  4.21072694 -0.00011691 1 # 49: Mg
  6.31499991  4.20958414  0.00011647 2 # 50: O
  4.21053394  6.31426920  2.10511863 1 # 51: Mg
  6.31499997  6.31541690  2.10488311 2 # 52: O
  6.31499865  4.21011238  2.10513298 1 # 53: Mg
  4.20928858  4.20944268  2.10472900 2 # 54: O
  6.31499930  6.31488746 -0.00013239 1 # 55: Mg
  4.20928781  6.31556180  0.00027189 2 # 56: O
  4.21020812  4.21015276  4.21015276 1 # 57: Mg
  6.31499994  4.20987916  4.20987916 2 # 58: O
  4.21021011  6.31484229  6.31484229 1 # 59: Mg
  6.31500001  6.31512165  6.31512165 2 # 60: O
  6.31499951  4.21013057  6.31486821 1 # 61: Mg
  4.20970481  4.20969761  6.31530216 2 # 62: O
  6.31499951  6.31486821  4.21013058 1 # 63: Mg
  4.20970482  6.31530217  4.20969761 2 # 64: O
  2.10499672  1.05261302  1.05261302 3 # 65: Li
%endblock AtomicCoordinatesAndAtomicSpecies

NumberOfSpecies 3
%block ChemicalSpeciesLabel
 1 12 Mg
 2 8 O
 3 3 Li
%endblock ChemicalSpeciesLabel
