LatticeConstant 1.0 Ang
%block LatticeVectors
 8.42000000 0.00000000 0.00000000
 0.00000000 8.42000000 0.00000000
 0.00000000 0.00000000 8.42000000
%endblock LatticeVectors

NumberOfAtoms 65
AtomicCoordinatesFormat Ang
%block AtomicCoordinatesAndAtomicSpecies
 -0.00587869 -0.00353250 -0.00353249 1 #  1: Mg
  2.10680385 -0.00431594 -0.00431594 2 #  2: O
 -0.00588072  2.10853360  2.10853359 1 #  3: Mg
  2.10680760  2.10931967  2.10931969 2 #  4: O
  2.11812078 -0.04138853  2.14632589 1 #  5: Mg
  0.00391881  0.00212580  2.10287375 2 #  6: O
  2.11812078  2.14632592 -0.04138852 1 #  7: Mg
  0.00391881  2.10287374  0.00212581 2 #  8: O
 -0.00037811 -0.00012551  4.21094963 1 #  9: Mg
  2.10484809  0.00047573  4.20928299 2 # 10: O
 -0.00037624  2.10512535  6.31405270 1 # 11: Mg
  2.10484779  2.10452086  6.31572891 2 # 12: O
  2.10509871 -0.00036887  6.31337629 1 # 13: Mg
  0.00069389  0.00031444  6.31566978 2 # 14: O
  2.10509939  2.10536963  4.21162283 1 # 15: Mg
  0.00069130  2.10468582  4.20933352 2 # 16: O
 -0.00037812  4.21094962 -0.00012549 1 # 17: Mg
  2.10484810  4.20928298  0.00047574 2 # 18: O
 -0.00037622  6.31405272  2.10512534 1 # 19: Mg
  2.10484779  6.31572892  2.10452087 2 # 20: O
  2.10509938  4.21162288  2.10536964 1 # 21: Mg
  0.00069131  4.20933353  2.10468582 2 # 22: O
  2.10509873  6.31337626 -0.00036887 1 # 23: Mg
  0.00069389  6.31566979  0.00031442 2 # 24: O
 -0.00022243  4.21017719  4.21017719 1 # 25: Mg
  2.10493914  4.20945100  4.20945101 2 # 26: O
 -0.00022244  6.31482232  6.31482231 1 # 27: Mg
  2.10493911  6.31555269  6.31555269 2 # 28: O
  2.10505811  4.21043557  6.31456384 1 # 29: Mg
  0.00025762  4.20961487  6.31538548 2 # 30: O
  2.10505811  6.31456384  4.21043554 1 # 31: Mg
  0.00025762  6.31538548  4.20961488 2 # 32: O
  4.21253556 -0.00072338 -0.00072340 1 # 33: Mg
  6.31530072  0.00037527  0.00037526 2 # 34: O
  4.21253489  2.10572311  2.10572313 1 # 35: Mg
  6.31530044  2.10462444  2.10462444 2 # 36: O
  6.31445659 -0.00006454  2.10506429 1 # 37: Mg
  4.20833144  0.00066155  2.10433726 2 # 38: O
  6.31445659  2.10506430 -0.00006454 1 # 39: Mg
  4.20833143  2.10433727  0.00066156 2 # 40: O
  4.21045618 -0.00014546  4.21049611 1 # 41: Mg
  6.31524528  0.00012223  4.20954538 2 # 42: O
  4.21045469  2.10514538  6.31450490 1 # 43: Mg
  6.31524514  2.10487764  6.31545447 2 # 44: O
  6.31492599 -0.00014539  6.31488035 1 # 45: Mg
  4.20932540  0.00020951  6.31553542 2 # 46: O
  6.31492544  2.10514513  4.21011941 1 # 47: Mg
  4.20932829  2.10479050  4.20946804 2 # 48: O
  4.21045617  4.21049613 -0.00014547 1 # 49: Mg
  6.31524528  4.20954540  0.00012222 2 # 50: O
  4.21045469  6.31450490  2.10514537 1 # 51: Mg
  6.31524515  6.31545446  2.10487763 2 # 52: O
  6.31492543  4.21011940  2.10514513 1 # 53: Mg
  4.20932830  4.20946804  2.10479049 2 # 54: O
  6.31492598  6.31488035 -0.00014539 1 # 55: Mg
  4.20932541  6.31553542  0.00020951 2 # 56: O
  4.21022349  4.21016337  4.21016336 1 # 57: Mg
  6.31505514  4.20986560  4.20986559 2 # 58: O
  4.21022461  6.31483584  6.31483584 1 # 59: Mg
  6.31505480  6.31513419  6.31513420 2 # 60: O
  6.31492973  4.21014740  6.31485310 1 # 61: Mg
  4.20973122  4.20977247  6.31522808 2 # 62: O
  6.31492973  6.31485310  4.21014739 1 # 63: Mg
  4.20973122  6.31522808  4.20977247 2 # 64: O
  1.73841614  1.05257219  1.05257219 3 # 65: Li
%endblock AtomicCoordinatesAndAtomicSpecies

NumberOfSpecies 3
%block ChemicalSpeciesLabel
 1 12 Mg
 2 8 O
 3 3 Li
%endblock ChemicalSpeciesLabel
