LatticeConstant 1.0 Ang
%block LatticeVectors
 8.42000000 0.00000000 0.00000000
 0.00000000 8.42000000 0.00000000
 0.00000000 0.00000000 8.42000000
%endblock LatticeVectors

NumberOfAtoms 65
AtomicCoordinatesFormat Ang
%block AtomicCoordinatesAndAtomicSpecies
 -0.00575288 -0.00345068 -0.00345069 1 #  1: Mg
  2.10669041 -0.00472679 -0.00472680 2 #  2: O
 -0.00574960  2.10844913  2.10844913 1 #  3: Mg
  2.10668965  2.10963973  2.10963972 2 #  4: O
  2.11776852 -0.04445785  2.14922122 1 #  5: Mg
  0.00390505  0.00209339  2.10290630 2 #  6: O
  2.11776852  2.14922124 -0.04445785 1 #  7: Mg
  0.00390506  2.10290630  0.00209340 2 #  8: O
 -0.00040365 -0.00012159  4.21095717 1 #  9: Mg
  2.10485168  0.00046757  4.20930203 2 # 10: O
 -0.00040519  2.10512231  6.31404506 1 # 11: Mg
  2.10485225  2.10453245  6.31569383 2 # 12: O
  2.10509943 -0.00038933  6.31338748 1 # 13: Mg
  0.00069500  0.00031688  6.31565366 2 # 14: O
  2.10510003  2.10538654  4.21163700 1 # 15: Mg
  0.00069512  2.10468322  4.20934717 2 # 16: O
 -0.00040367  4.21095717 -0.00012159 1 # 17: Mg
  2.10485169  4.20930202  0.00046758 2 # 18: O
 -0.00040520  6.31404505  2.10512231 1 # 19: Mg
  2.10485225  6.31569382  2.10453245 2 # 20: O
  2.10510003  4.21163701  2.10538654 1 # 21: Mg
  0.00069512  4.20934717  2.10468322 2 # 22: O
  2.10509943  6.31338749 -0.00038933 1 # 23: Mg
  0.00069499  6.31565366  0.00031688 2 # 24: O
 -0.00021439  4.21017225  4.21017226 1 # 25: Mg
  2.10493962  4.20946593  4.20946592 2 # 26: O
 -0.00021577  6.31482400  6.31482399 1 # 27: Mg
  2.10493958  6.31553386  6.31553387 2 # 28: O
  2.10505566  4.21047903  6.31452105 1 # 29: Mg
  0.00026281  4.20961734  6.31538296 2 # 30: O
  2.10505567  6.31452105  4.21047903 1 # 31: Mg
  0.00026281  6.31538295  4.20961734 2 # 32: O
  4.21252271 -0.00076743 -0.00076744 1 # 33: Mg
  6.31528763  0.00037373  0.00037373 2 # 34: O
  4.21251925  2.10576755  2.10576755 1 # 35: Mg
  6.31528765  2.10462641  2.10462640 2 # 36: O
  6.31447663 -0.00006509  2.10506474 1 # 37: Mg
  4.20828750  0.00067061  2.10432950 2 # 38: O
  6.31447664  2.10506474 -0.00006510 1 # 39: Mg
  4.20828749  2.10432950  0.00067060 2 # 40: O
  4.21047873 -0.00013863  4.21051375 1 # 41: Mg
  6.31523588  0.00012020  4.20955098 2 # 42: O
  4.21048219  2.10513904  6.31448281 1 # 43: Mg
  6.31523581  2.10487976  6.31544952 2 # 44: O
  6.31492660 -0.00014218  6.31487854 1 # 45: Mg
  4.20933252  0.00021605  6.31551933 2 # 46: O
  6.31492589  2.10514254  4.21012102 1 # 47: Mg
  4.20933146  2.10478436  4.20948149 2 # 48: O
  4.21047873  4.21051375 -0.00013862 1 # 49: Mg
  6.31523588  4.20955098  0.00012021 2 # 50: O
  4.21048219  6.31448280  2.10513905 1 # 51: Mg
  6.31523581  6.31544950  2.10487975 2 # 52: O
  6.31492589  4.21012103  2.10514253 1 # 53: Mg
  4.20933147  4.20948150  2.10478437 2 # 54: O
  6.31492660  6.31487854 -0.00014217 1 # 55: Mg
  4.20933253  6.31551934  0.00021605 2 # 56: O
  4.21021418  4.21015635  4.21015635 1 # 57: Mg
  6.31505350  4.20986844  4.20986844 2 # 58: O
  4.21021627  6.31483978  6.31483977 1 # 59: Mg
  6.31505355  6.31513182  6.31513183 2 # 60: O
  6.31493098  4.21014363  6.31485530 1 # 61: Mg
  4.20972746  4.20976803  6.31523211 2 # 62: O
  6.31493096  6.31485530  4.21014363 1 # 63: Mg
  4.20972746  6.31523211  4.20976803 2 # 64: O
  1.75643006  1.05244290  1.05244290 3 # 65: Li
%endblock AtomicCoordinatesAndAtomicSpecies

NumberOfSpecies 3
%block ChemicalSpeciesLabel
 1 12 Mg
 2 8 O
 3 3 Li
%endblock ChemicalSpeciesLabel
