Si8
1.0
   5.7048647662555423    0.0000000000000000    0.0000000000000003
   0.0000000000000009    5.7048647662555423    0.0000000000000003
   0.0000000000000000    0.0000000000000000    5.7048647662555423
Si
8
direct
   0.7239962430533975    0.7552824845696846    0.2348360429682759 Si
  -0.0300147926378681    0.4942731735533312    0.4996516941510888 Si
   0.7649832026683654    0.2434075110298359    0.7735390968534235 Si
   0.0203392552396377   -0.0185810685380461    0.0113728138202850 Si
   0.2443807259001150    0.7325565946180883    0.7314914016986142 Si
   0.5067089884525223    0.4982180805509552   -0.0128051041249412 Si
   0.2575810415424808    0.2718604093514198    0.2533688857458631 Si
   0.5120253357813493    0.0229828148647314    0.5085451688873911 Si

  -0.0040997215000000    0.0033522469000000   -0.0012543788000000
  -0.0030853147000000    0.0013890918000000   -0.0030210068000000
   0.0007652982200000   -0.0047292098000000    0.0043810147000000
   0.0082282231000000   -0.0038853142000000    0.0047519217000000
  -0.0008378438500000   -0.0008862605700000   -0.0067966753000000
  -0.0007125567300000   -0.0000165892560000   -0.0003287020600000
  -0.0018218842000000    0.0032328437000000   -0.0011567244000000
   0.0015637997000000    0.0015431914000000    0.0034245509000000

1
   2.00000000000000
 -0.36058509E+00 -0.17154243E-01 -0.23184783E-01 -0.34041557E+00
   0.7225589700000000    0.7564577099999999    0.2343962900000000
   0.9689035600000000    0.4947601600000000    0.4985926000000000
   0.7652515000000000    0.2417495500000000    0.7750749800000000
   0.0232238890000000    0.9800568300000000    0.0130387330000000
   0.2440870000000000    0.7322458900000000    0.7291086400000000
   0.5064591800000000    0.4982122600000000    0.9870796600000000
   0.2569423300000000    0.2729937700000000    0.2529633600000000
   0.5125735700000000    0.0235238240000000    0.5097457399999999
   0.0000000000000000    0.0000000000000000    0.0000000000000000
   0.0000000000000000    0.0000000000000000    0.0000000000000000
   0.0000000000000000    0.0000000000000000    0.0000000000000000
   0.0000000000000000    0.0000000000000000    0.0000000000000000
   0.0000000000000000    0.0000000000000000    0.0000000000000000
   0.0000000000000000    0.0000000000000000    0.0000000000000000
   0.0000000000000000    0.0000000000000000    0.0000000000000000
   0.0000000000000000    0.0000000000000000    0.0000000000000000
   0.0000000000000000    0.0000000000000000    0.0000000000000000
   0.0000000000000000    0.0000000000000000    0.0000000000000000
   0.0000000000000000    0.0000000000000000    0.0000000000000000
   0.0000000000000000    0.0000000000000000    0.0000000000000000
   0.0000000000000000    0.0000000000000000    0.0000000000000000
   0.0000000000000000    0.0000000000000000    0.0000000000000000
   0.0000000000000000    0.0000000000000000    0.0000000000000000
   0.0000000000000000    0.0000000000000000    0.0000000000000000
