pymatgen with grid density = 1213 / number of atoms
0
Gamma
8 8 8
