Sb2 Xe4 F18
1.0
   7.3869722199999996    0.0000000000000000    3.9106169899999998
   3.3216143400000000    7.4983939099999999    2.6577568299999998
  -0.0017575500000000   -0.0069713300000000    8.9354505900000003
Sb Xe F
2 4 18
direct
   0.9698096300000000    0.0014861300000000    0.8059806600000000 Sb
   0.2227235800000000    0.5014861300000000    0.3059806600000000 Sb
   0.5118556500000000    0.8217228800000000    0.3331796700000000 Xe
   0.3332418000000000    0.3217228800000000    0.8331796700000000 Xe
   0.6947131700000000    0.6586686899999999    0.7551121900000000 Xe
   0.8915059600000000    0.1586686900000000    0.2551121900000000 Xe
   0.7925252300000000    0.2397541200000000    0.8688166700000000 F
   0.0989039900000000    0.7397541200000000    0.3688166700000000 F
   0.7662075500000000    0.9874243000000000    0.7715508700000000 F
   0.4748172800000000    0.4874243000000000    0.2715508700000000 F
   0.0663063000000000    0.0927844100000000    0.5715429900000000 F
   0.2693663000000000    0.5927844100000000    0.0715429900000000 F
   0.6872744500000000    0.0654694000000000    0.4256530500000000 F
   0.8216031000000000    0.5654694000000000    0.9256530500000000 F
   0.1089084500000000    0.2755540300000000    0.0827515800000000 F
   0.5327859500000000    0.7755540300000000    0.5827515800000000 F
   0.5370489100000000    0.3835740100000000    0.6202622100000000 F
   0.4591148700000000    0.8835740100000000    0.1202622100000000 F
   0.3486866600000000    0.2638160800000000    0.2435291600000000 F
   0.1439680900000000    0.7638160800000000    0.7435291600000000 F
   0.1783266100000000    0.4115142700000000    0.5409816000000000 F
   0.8691775200000000    0.9115142700000000    0.0409816000000000 F
   0.9668416000000000    0.5208316800000000    0.3448393600000000 F
   0.1674873500000000    0.0208316800000000    0.8448393600000000 F
