Si2
   1.00000000000000
     3.3492355325695660   -0.0000000010670388    1.9336820628677196
     1.1164115074702534    3.1576894422099673    1.9336820628677194
     0.0000000041227204    0.0000000029152037    3.8673631114539160
   Si
   2
Direct
  0.8750000000000000  0.8750000000000000  0.8750000000000000
  0.1250000000000000  0.1250000000000000  0.1250000000000000

  0.00000000E+00  0.00000000E+00  0.00000000E+00
  0.00000000E+00  0.00000000E+00  0.00000000E+00
