Si7                                     
   1.00000000000000     
     5.4378483500000003    0.0000000000000000    0.0000000000000000
     0.0000000000000000    5.4378483500000003    0.0000000000000000
     0.0000000000000000    0.0000000000000000    5.4378483500000003
   Si
     7
Direct
  0.2440131745606464  0.7559868254393536  0.2440131745606464
  0.0000000000000000  0.0000000000000000  0.5000000000000000
  0.2440131745606464  0.2440131745606464  0.7559868254393536
  0.0000000000000000  0.5000000000000000 -0.0000000000000000
  0.7559868254393536  0.7559868254393536  0.7559868254393536
  0.5000000000000000  0.0000000000000000 -0.0000000000000000
  0.7559868254393536  0.2440131745606464  0.2440131745606464
 
  0.00000000E+00  0.00000000E+00  0.00000000E+00
  0.00000000E+00  0.00000000E+00  0.00000000E+00
  0.00000000E+00  0.00000000E+00  0.00000000E+00
  0.00000000E+00  0.00000000E+00  0.00000000E+00
  0.00000000E+00  0.00000000E+00  0.00000000E+00
  0.00000000E+00  0.00000000E+00  0.00000000E+00
  0.00000000E+00  0.00000000E+00  0.00000000E+00
