ALGO = Fast
EDIFF = 1e-06
EDIFFG = -0.02
ENAUG = 1360
ENCUT = 680
IBRION = 2
ISIF = 2
ISMEAR = 0
ISPIN = 2
KPAR = 2
KSPACING = 0.22
LAECHG = False
LASPH = True
LCHARG = False
LELF = False
LMAXMIX = 6
LMIXTAU = True
LORBIT = 11
LREAL = False
LVTOT = False
LWAVE = True
MAGMOM = 2*0.0
NCORE = 16
NELM = 200
NSW = 99
PREC = Accurate
SIGMA = 0.05
