Si2
1.0
   3.2484511305650066    0.0000000000000000    1.8754938702328661
   1.0828170435216691    3.0626703113570581    1.8754938702328661
   0.0000000000000000    0.0000000000000000    3.7509877404657321
Si
2
direct
   0.8750000000000000    0.8750000000000000    0.8750000000000000 Si
   0.1250000000000000    0.1250000000000000    0.1250000000000000 Si
