Si2
1.0
   3.1814727567389238    0.0000000000000000    1.8368238935270336
   1.0604909189129750    2.9995224698857785    1.8368238935270336
   0.0000000000000000    0.0000000000000000    3.6736477870540671
Si
2
direct
   0.8750000000000000    0.8750000000000000    0.8750000000000000 Si
   0.1250000000000000    0.1250000000000000    0.1250000000000000 Si
