Fe4
1.0
  -2.8700000000000001    2.8700000000000001    2.8700000000000001
   2.8700000000000001   -2.8700000000000001    2.8700000000000001
   1.4350000000000001    1.4350000000000001   -1.4350000000000001
Fe
4
direct
   0.0000000000000000    0.0000000000000000    0.0000000000000000 Fe
   0.0000000000000000    0.5000000000000000    0.0000000000000000 Fe
   0.5000000000000000    0.0000000000000000    0.0000000000000000 Fe
   0.5000000000000000    0.5000000000000000    0.0000000000000000 Fe
