LatticeConstant 1.0 Ang
%block LatticeVectors
 8.42000000 0.00000000 0.00000000
 0.00000000 8.42000000 0.00000000
 0.00000000 0.00000000 8.42000000
%endblock LatticeVectors

NumberOfAtoms 65
AtomicCoordinatesFormat Ang
%block AtomicCoordinatesAndAtomicSpecies
 -0.00182648 -0.00033390 -0.00033394 1 #  1: Mg
  2.10484389  0.00013507  0.00013511 2 #  2: O
 -0.00182860  2.10533269  2.10533266 1 #  3: Mg
  2.10481414  2.10490063  2.10490079 2 #  4: O
  2.08741849 -0.02679648  2.13177406 1 #  5: Mg
  0.00109947  0.00048012  2.10452050 2 #  6: O
  2.08741849  2.13177403 -0.02679647 1 #  7: Mg
  0.00109953  2.10452047  0.00048012 2 #  8: O
 -0.00036350 -0.00016035  4.21035466 1 #  9: Mg
  2.10529021  0.00047121  4.20923721 2 # 10: O
 -0.00036482  2.10515914  6.31464665 1 # 11: Mg
  2.10528951  2.10452917  6.31576993 2 # 12: O
  2.10487303 -0.00025024  6.31343161 1 # 13: Mg
  0.00062784  0.00016855  6.31553973 2 # 14: O
  2.10487436  2.10524576  4.21156808 1 # 15: Mg
  0.00062756  2.10483248  4.20946067 2 # 16: O
 -0.00036359  4.21035484 -0.00016033 1 # 17: Mg
  2.10529031  4.20923722  0.00047128 2 # 18: O
 -0.00036486  6.31464651  2.10515908 1 # 19: Mg
  2.10528949  6.31576997  2.10452934 2 # 20: O
  2.10487423  4.21156810  2.10524578 1 # 21: Mg
  0.00062765  4.20946073  2.10483255 2 # 22: O
  2.10487320  6.31343166 -0.00025038 1 # 23: Mg
  0.00062787  6.31553973  0.00016851 2 # 24: O
 -0.00022265  4.21017367  4.21017378 1 # 25: Mg
  2.10509890  4.20941620  4.20941602 2 # 26: O
 -0.00022749  6.31482465  6.31482468 1 # 27: Mg
  2.10509884  6.31558499  6.31558500 2 # 28: O
  2.10488580  4.21033459  6.31466948 1 # 29: Mg
  0.00023087  4.20980840  6.31519132 2 # 30: O
  2.10488574  6.31466964  4.21033457 1 # 31: Mg
  0.00023093  6.31519128  4.20980839 2 # 32: O
  4.21910808 -0.00693350 -0.00693352 1 # 33: Mg
  6.31447598  0.00040172  0.00040168 2 # 34: O
  4.21912663  2.11194345  2.11194340 1 # 35: Mg
  6.31447633  2.10459861  2.10459867 2 # 36: O
  6.31601564 -0.00007916  2.10507786 1 # 37: Mg
  4.20567798  0.00303106  2.10197124 2 # 38: O
  6.31601580  2.10507763 -0.00007910 1 # 39: Mg
  4.20567796  2.10197134  0.00303100 2 # 40: O
  4.21026432 -0.00012817  4.21120680 1 # 41: Mg
  6.31457593  0.00012857  4.20948883 2 # 42: O
  4.21026168  2.10512766  6.31379321 1 # 43: Mg
  6.31457602  2.10487172  6.31551093 2 # 44: O
  6.31514151 -0.00016903  6.31484228 1 # 45: Mg
  4.20941304  0.00037531  6.31572097 2 # 46: O
  6.31514434  2.10516678  4.21015718 1 # 47: Mg
  4.20941273  2.10462544  4.20927851 2 # 48: O
  4.21026439  4.21120684 -0.00012835 1 # 49: Mg
  6.31457585  4.20948888  0.00012866 2 # 50: O
  4.21026168  6.31379324  2.10512761 1 # 51: Mg
  6.31457599  6.31551089  2.10487181 2 # 52: O
  6.31514443  4.21015731  2.10516671 1 # 53: Mg
  4.20941279  4.20927855  2.10462540 2 # 54: O
  6.31514112  6.31484255 -0.00016952 1 # 55: Mg
  4.20941303  6.31572105  0.00037521 2 # 56: O
  4.21021673  4.21018985  4.21019002 1 # 57: Mg
  6.31489402  4.20985056  4.20985056 2 # 58: O
  4.21022068  6.31481161  6.31481153 1 # 59: Mg
  6.31489383  6.31514942  6.31514941 2 # 60: O
  6.31512856  4.21017617  6.31482671 1 # 61: Mg
  4.20979181  4.20952861  6.31547149 2 # 62: O
  6.31512857  6.31482674  4.21017636 1 # 63: Mg
  4.20979175  6.31547150  4.20952869 2 # 64: O
  2.81292262  1.05276818  1.05276822 3 # 65: Li
%endblock AtomicCoordinatesAndAtomicSpecies

NumberOfSpecies 3
%block ChemicalSpeciesLabel
 1 12 Mg
 2 8 O
 3 3 Li
%endblock ChemicalSpeciesLabel
