LatticeConstant 1.0 Ang
%block LatticeVectors
 8.42000000 0.00000000 0.00000000
 0.00000000 8.42000000 0.00000000
 0.00000000 0.00000000 8.42000000
%endblock LatticeVectors

NumberOfAtoms 65
AtomicCoordinatesFormat Ang
%block AtomicCoordinatesAndAtomicSpecies
 -0.00253620 -0.00072388 -0.00072388 1 #  1: Mg
  2.10319718 -0.00431971 -0.00431972 2 #  2: O
 -0.00253573  2.10572377  2.10572378 1 #  3: Mg
  2.10319205  2.10932365  2.10932364 2 #  4: O
  2.09188681 -0.04140778  2.14634346 1 #  5: Mg
  0.00166965  0.00066186  2.10433696 2 #  6: O
  2.09188681  2.14634347 -0.04140777 1 #  7: Mg
  0.00166964  2.10433696  0.00066185 2 #  8: O
 -0.00045668 -0.00014530  4.21049664 1 #  9: Mg
  2.10515201  0.00047578  4.20928255 2 # 10: O
 -0.00045536  2.10514528  6.31450432 1 # 11: Mg
  2.10515230  2.10452090  6.31572870 2 # 12: O
  2.10490134 -0.00036904  6.31337641 1 # 13: Mg
  0.00067444  0.00020958  6.31553535 2 # 14: O
  2.10490065  2.10536975  4.21162272 1 # 15: Mg
  0.00067139  2.10479039  4.20946813 2 # 16: O
 -0.00045668  4.21049664 -0.00014530 1 # 17: Mg
  2.10515201  4.20928255  0.00047578 2 # 18: O
 -0.00045537  6.31450432  2.10514529 1 # 19: Mg
  2.10515230  6.31572869  2.10452091 2 # 20: O
  2.10490065  4.21162272  2.10536975 1 # 21: Mg
  0.00067138  4.20946812  2.10479039 2 # 22: O
  2.10490134  6.31337641 -0.00036905 1 # 23: Mg
  0.00067444  6.31553536  0.00020958 2 # 24: O
 -0.00022350  4.21016321  4.21016319 1 # 25: Mg
  2.10506117  4.20945105  4.20945106 2 # 26: O
 -0.00022464  6.31483576  6.31483577 1 # 27: Mg
  2.10506103  6.31555255  6.31555254 2 # 28: O
  2.10494187  4.21043613  6.31456334 1 # 29: Mg
  0.00026860  4.20977240  6.31522817 2 # 30: O
  2.10494186  6.31456332  4.21043615 1 # 31: Mg
  0.00026862  6.31522818  4.20977242 2 # 32: O
  4.21587646 -0.00353003 -0.00353003 1 # 33: Mg
  6.31469957  0.00037523  0.00037523 2 # 34: O
  4.21587828  2.10853109  2.10853108 1 # 35: Mg
  6.31469956  2.10462450  2.10462449 2 # 36: O
  6.31554294 -0.00006471  2.10506437 1 # 37: Mg
  4.20608141  0.00212507  2.10287447 2 # 38: O
  6.31554293  2.10506439 -0.00006471 1 # 39: Mg
  4.20608139  2.10287446  0.00212508 2 # 40: O
  4.21037833 -0.00012548  4.21094921 1 # 41: Mg
  6.31475520  0.00012219  4.20954550 2 # 42: O
  4.21037670  2.10512527  6.31405305 1 # 43: Mg
  6.31475501  2.10487763  6.31545437 2 # 44: O
  6.31507316 -0.00014550  6.31488003 1 # 45: Mg
  4.20930583  0.00031443  6.31566955 2 # 46: O
  6.31507307  2.10514540  4.21011972 1 # 47: Mg
  4.20930811  2.10468585  4.20933358 2 # 48: O
  4.21037831  4.21094923 -0.00012548 1 # 49: Mg
  6.31475520  4.20954550  0.00012220 2 # 50: O
  4.21037671  6.31405303  2.10512527 1 # 51: Mg
  6.31475501  6.31545436  2.10487764 2 # 52: O
  6.31507307  4.21011971  2.10514540 1 # 53: Mg
  4.20930811  4.20933356  2.10468585 2 # 54: O
  6.31507317  6.31488004 -0.00014549 1 # 55: Mg
  4.20930584  6.31566955  0.00031443 2 # 56: O
  4.21022246  4.21017723  4.21017724 1 # 57: Mg
  6.31494494  4.20986560  4.20986558 2 # 58: O
  4.21022229  6.31482231  6.31482231 1 # 59: Mg
  6.31494502  6.31513417  6.31513418 2 # 60: O
  6.31506998  4.21014752  6.31485300 1 # 61: Mg
  4.20974206  4.20961492  6.31538535 2 # 62: O
  6.31506998  6.31485301  4.21014753 1 # 63: Mg
  4.20974205  6.31538533  4.20961493 2 # 64: O
  2.47130838  1.05257377  1.05257377 3 # 65: Li
%endblock AtomicCoordinatesAndAtomicSpecies

NumberOfSpecies 3
%block ChemicalSpeciesLabel
 1 12 Mg
 2 8 O
 3 3 Li
%endblock ChemicalSpeciesLabel
