ALGO = Fast
EDIFF = 1e-07
ENAUG = 1360
ENCUT = 700
GGA = Rp
IBRION = -1
ISMEAR = -5
ISPIN = 2
LAECHG = True
LASPH = True
LCHARG = True
LDAU = False
LELF = False
LMAXMIX = 4
LMIXTAU = True
LORBIT = 11
LREAL = False
LVTOT = True
LWAVE = False
MAGMOM = 17*0.0
NELM = 500
NSW = 0
PREC = Accurate
SIGMA = 0.2
