Au16 O1
1.0
   8.3973470668481660    0.0000000000000000    0.0000000000000005
   0.0000000000000014    8.3973470668481660    0.0000000000000005
   0.0000000000000000    0.0000000000000000   25.1920412005444980
Au O
16 1
direct
   0.0130061791899231    0.0027820142969057    0.4621243061565772 Au
  -0.0043115209022780    0.5043115209022779    0.4570408168095576 Au
   0.4963698771340121    0.0036301228659880    0.4599407116089265 Au
   0.4972179857030943    0.4869938208100770    0.4621243061565772 Au
  -0.0060619698437658    0.2591041536103382    0.5384851765070389 Au
  -0.0033470236330631    0.7466529763669371    0.5423682594025681 Au
   0.5104014161902517    0.2604014161902513    0.5498650471440670 Au
   0.5091041536103379    0.7439380301562343    0.5384851765070389 Au
   0.2395985838097486   -0.0104014161902514    0.5498650471440670 Au
   0.2408958463896620    0.5060619698437657    0.5384851765070389 Au
   0.7560619698437657   -0.0091041536103381    0.5384851765070389 Au
   0.7533470236330629    0.5033470236330629    0.5423682594025681 Au
   0.2536301228659881    0.2463698771340119    0.4599407116089265 Au
   0.2527820142969057    0.7630061791899236    0.4621243061565772 Au
   0.7369938208100764    0.2472179857030943    0.4621243061565772 Au
   0.7543115209022778    0.7456884790977222    0.4570408168095576 Au
   0.3750000000000000    0.1250000000000000    0.6001892188718374 O
