Au16 O1
1.0
   8.3927098129985858    0.0000000000000000    0.0000000000000005
   0.0000000000000013    8.3927098129985858    0.0000000000000005
   0.0000000000000000    0.0000000000000000   25.1781294389957573
Au O
16 1
direct
  -0.0039298114846941   -0.0039298114846941    0.4572739405561687 Au
   0.0126221889566096    0.4974616190008405    0.4622903935652165 Au
   0.4974616190008405    0.0126221889566096    0.4622903935652165 Au
   0.4967332718004244    0.4967332718004244    0.4597076060409837 Au
  -0.0060128387218034    0.2418159125321178    0.5387698157595751 Au
  -0.0029843435585102    0.7529843435585103    0.5424155299406018 Au
   0.5085658412482488    0.2414341587517511    0.5489054478791325 Au
   0.5081840874678818    0.7560128387218030    0.5387698157595751 Au
   0.2418159125321178   -0.0060128387218034    0.5387698157595751 Au
   0.2414341587517511    0.5085658412482488    0.5489054478791325 Au
   0.7529843435585103   -0.0029843435585102    0.5424155299406018 Au
   0.7560128387218030    0.5081840874678818    0.5387698157595751 Au
   0.2532667281995756    0.2532667281995756    0.4597076060409837 Au
   0.2525383809991595    0.7373778110433906    0.4622903935652165 Au
   0.7373778110433906    0.2525383809991595    0.4622903935652165 Au
   0.7539298114846940    0.7539298114846940    0.4572739405561687 Au
   0.3750000000000000    0.3750000000000000    0.6002547990475255 O
