pymatgen with grid density = 447 / number of atoms
0
Gamma
4 4 1
