Ba8 O2 F12
   1.0000000000000000
     8.7478746800000007    0.0000000000000000    0.0000000000000005
     0.0000000000000014    8.7478746800000007    0.0000000000000005
     0.0000000000000000    0.0000000000000000    6.2884913500000001
   Ba   O    F
     8     2    12
Direct
  0.2539217200000010  0.0000000000000000  0.2930583099999993
  0.5000000000000000  0.7539217200000010  0.7930583099999993
  0.5000000000000000  0.2460782799999990  0.7930583099999993
  0.7460782799999990  0.0000000000000000  0.2930583099999993
  0.7539217200000010  0.5000000000000000  0.2069416900000007
  0.0000000000000000  0.2539217200000010  0.7069416900000007
  0.0000000000000000  0.7460782799999990  0.7069416900000007
  0.2460782799999990  0.5000000000000000  0.2069416900000007
  0.5000000000000000  0.5000000000000000  0.0000000000000000
  0.0000000000000000  0.0000000000000000  0.5000000000000000
  0.2778392499999995  0.7221607500000005  0.5000000000000000
  0.2778392499999995  0.2778392499999995  0.5000000000000000
  0.5000000000000000  0.0000000000000000  0.5327661999999975
  0.5000000000000000  0.0000000000000000  0.0327661999999975
  0.7221607500000005  0.2778392499999995  0.5000000000000000
  0.7221607500000005  0.7221607500000005  0.5000000000000000
  0.7778392499999995  0.7778392499999995  0.0000000000000000
  0.7778392499999995  0.2221607500000005  0.0000000000000000
  0.0000000000000000  0.5000000000000000  0.9672338000000025
  0.0000000000000000  0.5000000000000000  0.4672338000000025
  0.2221607500000005  0.7778392499999995  0.0000000000000000
  0.2221607500000005  0.2221607500000005  0.0000000000000000

  0.00000000E+00  0.00000000E+00  0.00000000E+00
  0.00000000E+00  0.00000000E+00  0.00000000E+00
  0.00000000E+00  0.00000000E+00  0.00000000E+00
  0.00000000E+00  0.00000000E+00  0.00000000E+00
  0.00000000E+00  0.00000000E+00  0.00000000E+00
  0.00000000E+00  0.00000000E+00  0.00000000E+00
  0.00000000E+00  0.00000000E+00  0.00000000E+00
  0.00000000E+00  0.00000000E+00  0.00000000E+00
  0.00000000E+00  0.00000000E+00  0.00000000E+00
  0.00000000E+00  0.00000000E+00  0.00000000E+00
  0.00000000E+00  0.00000000E+00  0.00000000E+00
  0.00000000E+00  0.00000000E+00  0.00000000E+00
  0.00000000E+00  0.00000000E+00  0.00000000E+00
  0.00000000E+00  0.00000000E+00  0.00000000E+00
  0.00000000E+00  0.00000000E+00  0.00000000E+00
  0.00000000E+00  0.00000000E+00  0.00000000E+00
  0.00000000E+00  0.00000000E+00  0.00000000E+00
  0.00000000E+00  0.00000000E+00  0.00000000E+00
  0.00000000E+00  0.00000000E+00  0.00000000E+00
  0.00000000E+00  0.00000000E+00  0.00000000E+00
  0.00000000E+00  0.00000000E+00  0.00000000E+00
  0.00000000E+00  0.00000000E+00  0.00000000E+00
