Ba8 O2 F12
1.0
   8.7478746800000007    0.0000000000000000    0.0000000000000005
   0.0000000000000014    8.7478746800000007    0.0000000000000005
   0.0000000000000000    0.0000000000000000    6.2884913500000001
Ba O F
8 2 12
direct
   0.2539217200000000    0.0000000000000000    0.2930583100000000 Ba
   0.5000000000000000    0.7539217200000000    0.7930583099999999 Ba
   0.5000000000000000    0.2460782800000000    0.7930583099999999 Ba
   0.7460782800000000    0.0000000000000000    0.2930583100000000 Ba
   0.7539217200000000    0.5000000000000000    0.2069416900000000 Ba
   0.0000000000000000    0.2539217200000000    0.7069416900000001 Ba
   0.0000000000000000    0.7460782800000000    0.7069416900000001 Ba
   0.2460782800000000    0.5000000000000000    0.2069416900000000 Ba
   0.5000000000000000    0.5000000000000000    0.0000000000000000 O
   0.0000000000000000    0.0000000000000000    0.5000000000000000 O
   0.2778392500000000    0.7221607500000000    0.5000000000000000 F
   0.2778392500000000    0.2778392500000000    0.5000000000000000 F
   0.5000000000000000    0.0000000000000000    0.5327662000000000 F
   0.5000000000000000    0.0000000000000000    0.0327662000000000 F
   0.7221607500000000    0.2778392500000000    0.5000000000000000 F
   0.7221607500000000    0.7221607500000000    0.5000000000000000 F
   0.7778392500000000    0.7778392500000000    0.0000000000000000 F
   0.7778392500000000    0.2221607500000000    0.0000000000000000 F
   0.0000000000000000    0.5000000000000000    0.9672338000000000 F
   0.0000000000000000    0.5000000000000000    0.4672338000000000 F
   0.2221607500000000    0.7778392500000000    0.0000000000000000 F
   0.2221607500000000    0.2221607500000000    0.0000000000000000 F
