LatticeConstant 1.0 Ang
%block LatticeVectors
 8.42000000 0.00000000 0.00000000
 0.00000000 8.42000000 0.00000000
 0.00000000 0.00000000 8.42000000
%endblock LatticeVectors

NumberOfAtoms 65
AtomicCoordinatesFormat Ang
%block AtomicCoordinatesAndAtomicSpecies
 -0.00568359 -0.00234767 -0.00234864 1 #  1: Mg
  2.10272412  0.01640418  0.01640396 2 #  2: O
 -0.00543616  2.10698900  2.10698883 1 #  3: Mg
  2.10401720  2.16098535  2.16098628 2 #  4: O
  2.10507534 -0.05316311  2.15750991 1 #  5: Mg
  0.01688209 -0.00560883  2.09983291 2 #  6: O
  2.10507529  2.15750987 -0.05316300 1 #  7: Mg
  0.01688604  2.09983583 -0.00561074 2 #  8: O
 -0.00366195  0.00837124  4.21276750 1 #  9: Mg
  2.10392296 -0.00550200  4.20875398 2 # 10: O
 -0.00630084  2.09747968  6.31614538 1 # 11: Mg
  2.10405243  2.09519509  6.33214405 2 # 12: O
  2.10553756 -0.00421207  6.31103624 1 # 13: Mg
 -0.00267494 -0.00111750  6.32342246 2 # 14: O
  2.10635640  2.10436080  4.21212137 1 # 15: Mg
 -0.00941169  2.10813273  4.20331467 2 # 16: O
 -0.00366581  4.21276764  0.00836904 1 # 17: Mg
  2.10392643  4.20875239 -0.00550143 2 # 18: O
 -0.00630211  6.31614494  2.09748066 1 # 19: Mg
  2.10405320  6.33214552  2.09519225 2 # 20: O
  2.10635800  4.21212067  2.10436422 1 # 21: Mg
 -0.00941053  4.20330932  2.10813555 2 # 22: O
  2.10553960  6.31103689 -0.00421487 1 # 23: Mg
 -0.00267156  6.32342620 -0.00112148 2 # 24: O
 -0.00542817  4.20436519  4.20436847 1 # 25: Mg
  2.10508074  4.19718080  4.19718367 2 # 26: O
  0.01230069  6.32636110  6.32636224 1 # 27: Mg
  2.10478090  6.32471754  6.32471601 2 # 28: O
  2.10561072  4.19967229  6.32186001 1 # 29: Mg
 -0.00504997  4.19911895  6.33094447 2 # 30: O
  2.10561209  6.32185387  4.19965985 1 # 31: Mg
 -0.00504976  6.33094379  4.19912061 2 # 32: O
  4.21572135 -0.00228051 -0.00228175 1 # 33: Mg
  6.31528449 -0.00074471 -0.00073460 2 # 34: O
  4.21519649  2.10717563  2.10717568 1 # 35: Mg
  6.31605659  2.10338460  2.10338961 2 # 36: O
  6.31294194 -0.01582214  2.10428052 1 # 37: Mg
  4.19732485 -0.00659513  2.09814160 2 # 38: O
  6.31295000  2.10424255 -0.01582701 1 # 39: Mg
  4.19732047  2.09813660 -0.00659619 2 # 40: O
  4.21353015  0.00428747  4.21028771 1 # 41: Mg
  6.31618674  0.00812796  4.20376332 2 # 42: O
  4.21522531  2.09794436  6.31583699 1 # 43: Mg
  6.31635084  2.10116161  6.31900474 2 # 44: O
  6.31445024  0.01558876  6.32511100 1 # 45: Mg
  4.21213154 -0.00152668  6.32248980 2 # 46: O
  6.31582342  2.11403333  4.20728644 1 # 47: Mg
  4.21480655  2.10828488  4.20246123 2 # 48: O
  4.21353161  4.21028869  0.00428734 1 # 49: Mg
  6.31618718  4.20374933  0.00812218 2 # 50: O
  4.21522779  6.31583701  2.09794408 1 # 51: Mg
  6.31634766  6.31900790  2.10116694 2 # 52: O
  6.31581862  4.20728080  2.11402435 1 # 53: Mg
  4.21480469  4.20246204  2.10828736 2 # 54: O
  6.31444916  6.32510699  0.01558762 1 # 55: Mg
  4.21213115  6.32249148 -0.00152738 2 # 56: O
  4.21649783  4.20563604  4.20563560 1 # 57: Mg
  6.31730650  4.20628949  4.20629140 2 # 58: O
  4.19812855  6.32635959  6.32635818 1 # 59: Mg
  6.31650876  6.32358944  6.32358612 2 # 60: O
  6.31510563  4.19220511  6.32576858 1 # 61: Mg
  4.21426688  4.19923590  6.33046541 2 # 62: O
  6.31510548  6.32576741  4.19220339 1 # 63: Mg
  4.21426726  6.33046420  4.19923405 2 # 64: O
  2.10835967  1.04443056  1.04443064 3 # 65: Li
%endblock AtomicCoordinatesAndAtomicSpecies

NumberOfSpecies 3
%block ChemicalSpeciesLabel
 1 12 Mg
 2 8 O
 3 3 Li
%endblock ChemicalSpeciesLabel
