Mg6 Sb4
1.0
   0.0000000000000000   -7.9687205901544802    0.0000000000000000
   4.6007429778226028    0.0000000000000000    0.0000000000000000
   0.0000000000000000    0.0000000000000000    7.2813299999999996
Mg Sb
6 4
direct
   0.0000000000000000    0.0000000000000000    0.0000000000000000 Mg
   0.4999999999999999    0.5000000000000000    0.0000000000000000 Mg
   0.8333333333333333    0.5000000000000000    0.3683250000000000 Mg
   0.3333333333333333    0.0000000000000000    0.3683250000000000 Mg
   0.1666666666666667    0.5000000000000000    0.6316750000000001 Mg
   0.6666666666666666    0.0000000000000000    0.6316750000000001 Mg
   0.8333333333333333    0.5000000000000000    0.7761223754684926 Sb
   0.3333333333333333    0.0000000000000000    0.7747489999999999 Sb
   0.1666666666666667    0.5000000000000000    0.2252510000000001 Sb
   0.6666666666666666    0.0000000000000000    0.2252510000000001 Sb
