Si8
1.0
   5.4359997399999997   -0.0000000000000002   -0.0000000000000002
  -0.0000000000000002    5.4359997399999997    0.0000000000000002
   0.0000000000000002    0.0000000000000002    5.4359997399999997
Si
8
direct
   0.0018395880202893   -0.0000000000000000    0.0000000000000000 Si
   1.0000000000000000    0.5000000000000000    0.5000000000000000 Si
   0.5000000000000000   -0.0000000000000000    0.5000000000000000 Si
   0.4999999999999999    0.5000000000000000   -0.0000000000000000 Si
   0.2499999999999999    0.2500000000000000    0.2500000000000000 Si
   0.2499999999999999    0.7500000000000000    0.7500000000000000 Si
   0.7499999999999998    0.2500000000000000    0.7500000000000000 Si
   0.7499999999999998    0.7500000000000000    0.2500000000000000 Si
