Mg2 Mn4 O8
1.0
   5.0688234300000001    0.0001248800000000   -2.6611016699999999
  -1.3970423400000000    4.8724991099999997   -2.6611020299999999
   0.0098609100000000    0.0130852800000000    6.1764935899999998
Mg Mn O
2 4 8
direct
   0.3748972600000000    0.6251027400000000    0.7500000200000000 Mg,spin=0
   0.6251027400000000    0.3748972600000000    0.2499999800000000 Mg,spin=0
  -0.0000000000000000   -0.0000000000000000    0.5000000000000000 Mn,spin=5
  -0.0000000000000000    0.5000000000000000    0.0000000000000000 Mn,spin=5
   0.5000000000000000   -0.0000000000000000    0.5000000000000000 Mn,spin=5
  -0.0000000000000000   -0.0000000000000000    0.0000000000000000 Mn,spin=5
   0.7540230900000000    0.7782675000000000    0.5080588200000000 O,spin=0
   0.7702028500000000    0.2459477900000000    0.9919131600000000 O,spin=0
   0.2217325400000000    0.2459768900000000    0.9919411600000000 O,spin=0
   0.2459769100000000    0.2217325000000000    0.4919411800000000 O,spin=0
   0.2459476500000000    0.7702028800000000    0.4919131300000000 O,spin=0
   0.2297971500000000    0.7540522100000000    0.0080868400000000 O,spin=0
   0.7540523500000000    0.2297971200000000    0.5080868700000000 O,spin=0
   0.7782674600000000    0.7540231100000000    0.0080588400000000 O,spin=0
