ALGO = Fast
EDIFF = 1e-05
EDIFFG = -0.02
ENAUG = 1360
ENCUT = 700
GGA = Rp
IBRION = 2
ISIF = 3
ISMEAR = 0
ISPIN = 2
LAECHG = True
LASPH = True
LCHARG = False
LDAU = False
LELF = False
LMAXMIX = 4
LMIXTAU = True
LORBIT = 11
LREAL = False
LVTOT = True
LWAVE = False
MAGMOM = 4*0.6
NELM = 500
NSW = 300
PREC = Accurate
SIGMA = 0.2
