pymatgen with grid density = 2730 / number of atoms
0
Gamma
8 8 8
