Au4
1.0
   4.1736000000000004    0.0000000000000000    0.0000000000000000
   0.0000000000000000    4.1736000000000004    0.0000000000000000
   0.0000000000000000    0.0000000000000000    4.1736000000000004
Au
4
direct
   0.0000000000000000    0.0000000000000000    0.0000000000000000 Au
   0.0000000000000000    0.5000000000000000    0.5000000000000000 Au
   0.5000000000000000    0.0000000000000000    0.5000000000000000 Au
   0.5000000000000000    0.5000000000000000    0.0000000000000000 Au
