pymatgen with grid density = 221 / number of atoms
0
Gamma
5 5 3
