Fe2
1.0
   2.3191222174320663    0.0022375575036685   -0.8210990887096972
  -1.1577271585521238    2.0093705129625041   -0.8213633337288552
   1.1366928212633334    1.9694568925378289    3.2158537811988110
Fe
2
direct
   0.4999999975681035    0.5000000220874199    0.5000000028567015 Fe
   0.0000000024318965    0.9999999779125801    0.9999999971432985 Fe
