#===============================================================================
# Created using the Atomic Simulation Environment (ASE)

# Thu Oct  5 16:17:27 2023

#=======================================================
lattice_vector 0.0000000800000000 2.8151761899999999 2.8151761899999999
lattice_vector 2.8151760900000000 -0.0000000400000000 2.8151761400000002
lattice_vector 2.8151760900000000 2.8151761400000002 -0.0000000400000000
atom_frac -0.0000000071043512 0.0000000035521758 0.0000000035521758 Si
atom_frac 0.2500000053282634 0.2499999973358682 0.2499999973358681 Si
