65
Lattice="8.42 0.0 0.0 0.0 8.42 0.0 0.0 0.0 8.42" Properties=species:S:1:pos:R:3 pbc="T T T"
Mg      -0.00129342      -0.00057585      -0.00057585
O        2.10514676      -0.06153662      -0.06153662
Mg      -0.00118285       2.10554342       2.10554342
O        2.10492703       2.16224992       2.16224992
Mg       2.10506589      -0.06066498       2.16404322
O       -0.00123813      -0.00055126       2.10557253
Mg       2.10506589       2.16404322      -0.06066498
O       -0.00123813       2.10557253      -0.00055126
Mg      -0.00040980      -0.00009809       4.21050762
O        2.10500144      -0.00042540       4.21293999
Mg      -0.00005915       2.10502070       6.31513117
O        2.10500039       2.10503844       6.31527258
Mg       2.10500035      -0.00003428       6.31527713
O       -0.00006033      -0.00001809       6.31513340
Mg       2.10500080       2.10542984       4.21287068
O       -0.00039937       2.10510662       4.21049352
Mg      -0.00040980       4.21050762      -0.00009809
O        2.10500144       4.21293999      -0.00042540
Mg      -0.00005915       6.31513117       2.10502070
O        2.10500039       6.31527258       2.10503844
Mg       2.10500080       4.21287068       2.10542984
O       -0.00039937       4.21049352       2.10510662
Mg       2.10500035       6.31527713      -0.00003428
O       -0.00006033       6.31513340      -0.00001809
Mg      -0.00016927       4.21019426       4.21019426
O        2.10500053       4.21059337       4.21059337
Mg      -0.00001295       6.31502780       6.31502780
O        2.10500011       6.31504047       6.31504047
Mg       2.10500025       4.21007174       6.31513324
O       -0.00003484       4.21004143       6.31507556
Mg       2.10500025       6.31513324       4.21007174
O       -0.00003484       6.31507556       4.21004143
Mg       4.21126336      -0.00057902      -0.00057902
O        6.31500115       0.00001468       0.00001468
Mg       4.21113210       2.10553575       2.10553575
O        6.31499054       2.10498735       2.10498735
Mg       6.31499602       0.00001595       2.10498814
O        4.21119940      -0.00055618       2.10556673
Mg       6.31499602       2.10498814       0.00001595
O        4.21119940       2.10556673      -0.00055618
Mg       4.21040247      -0.00009888       4.21050438
O        6.31505635      -0.00000432       4.21002700
Mg       4.21005918       2.10502058       6.31513062
O        6.31502820       2.10500498       6.31502781
Mg       6.31502865      -0.00000414       6.31502829
O        4.21006038      -0.00001794       6.31513296
Mg       6.31505405       2.10500656       4.21002562
O        4.21039011       2.10510526       4.21048927
Mg       4.21040247       4.21050438      -0.00009888
O        6.31505635       4.21002700      -0.00000432
Mg       4.21005918       6.31513062       2.10502058
O        6.31502820       6.31502781       2.10500498
Mg       6.31505405       4.21002562       2.10500656
O        4.21039011       4.21048927       2.10510526
Mg       6.31502865       6.31502829      -0.00000414
O        4.21006038       6.31513296      -0.00001794
Mg       4.21016677       4.21019271       4.21019271
O        6.31504499       4.21002352       4.21002352
Mg       4.21001312       6.31502769       6.31502769
O        6.31501071       6.31501082       6.31501082
Mg       6.31502061       4.21001160       6.31502054
O        4.21003498       4.21004115       6.31507523
Mg       6.31502061       6.31502054       4.21001160
O        4.21003498       6.31507523       4.21004115
Li       2.10500753       1.04784119       1.04784119
