65
Lattice="8.42 0.0 0.0 0.0 8.42 0.0 0.0 0.0 8.42" Properties=species:S:1:pos:R:3 pbc="T T T"
Mg      -0.00178859      -0.00123857      -0.00123857
O        2.12002896      -0.04779613      -0.04779613
Mg      -0.00164536       2.10615812       2.10615812
O        2.11907093       2.14956548       2.14956548
Mg       2.11957378      -0.04715533       2.15092178
O       -0.00171590      -0.00119678       2.10621049
Mg       2.11957378       2.15092178      -0.04715533
O       -0.00171590       2.10621049      -0.00119678
Mg      -0.00029889      -0.00011238       4.21049086
O        2.10513063      -0.00037690       4.21235937
Mg      -0.00004180       2.10501803       6.31511162
O        2.10500835       2.10503279       6.31522607
Mg       2.10500843      -0.00002935       6.31522973
O       -0.00004274      -0.00001579       6.31511359
Mg       2.10512735       2.10537934       4.21230543
O       -0.00029081       2.10511869       4.21047702
Mg      -0.00029889       4.21049086      -0.00011238
O        2.10513063       4.21235937      -0.00037690
Mg      -0.00004180       6.31511162       2.10501803
O        2.10500835       6.31522607       2.10503279
Mg       2.10512735       4.21230543       2.10537934
O       -0.00029081       4.21047702       2.10511869
Mg       2.10500843       6.31522973      -0.00002935
O       -0.00004274       6.31511359      -0.00001579
Mg      -0.00011751       4.21016356       4.21016356
O        2.10502265       4.21047343       4.21047343
Mg      -0.00000917       6.31502249       6.31502249
O        2.10500131       6.31503340       6.31503340
Mg       2.10500391       4.21005929       6.31510923
O       -0.00002454       4.21003421       6.31506187
Mg       2.10500391       6.31510923       4.21005929
O       -0.00002454       6.31506187       4.21003421
Mg       4.21105120      -0.00024053      -0.00024053
O        6.31504197       0.00000475       0.00000475
Mg       4.21096291       2.10522726       2.10522726
O        6.31503452       2.10499713       2.10499713
Mg       6.31503839       0.00000563       2.10499762
O        4.21100856      -0.00022879       2.10524224
Mg       6.31503839       2.10499762       0.00000563
O        4.21100856       2.10524224      -0.00022879
Mg       4.21037516      -0.00007770       4.21041170
O        6.31506308      -0.00000622       4.21002974
Mg       4.21005514       2.10501795       6.31511160
O        6.31502810       2.10500494       6.31502706
Mg       6.31502844      -0.00000425       6.31502741
O        4.21005613      -0.00001580       6.31511341
Mg       6.31506135       2.10500806       4.21002876
O        4.21036501       2.10508339       4.21040043
Mg       4.21037516       4.21041170      -0.00007770
O        6.31506308       4.21002974      -0.00000622
Mg       4.21005514       6.31511160       2.10501795
O        6.31502810       6.31502706       2.10500494
Mg       6.31506135       4.21002876       2.10500806
O        4.21036501       4.21040043       2.10508339
Mg       6.31502844       6.31502741      -0.00000425
O        4.21005613       6.31511341      -0.00001580
Mg       4.21015128       4.21016241       4.21016241
O        6.31504560       4.21002349       4.21002349
Mg       4.21001199       6.31502383       6.31502383
O        6.31501020       6.31501018       6.31501018
Mg       6.31501999       4.21001115       6.31501956
O        4.21003199       4.21003540       6.31506423
Mg       6.31501999       6.31501956       4.21001115
O        4.21003199       6.31506423       4.21003540
Li       1.74919398       1.04822930       1.04822930
