65
Lattice="8.42 0.0 0.0 0.0 8.42 0.0 0.0 0.0 8.42" Properties=species:S:1:pos:R:3 pbc="T T T"
Mg       0.00000000       0.00000000       0.00000000
O        2.10500000       0.00000000       0.00000000
Mg       0.00000000       2.10500000       2.10500000
O        2.10500000       2.10500000       2.10500000
Mg       2.10500000       0.00000000       2.10500000
O        0.00000000       0.00000000       2.10500000
Mg       2.10500000       2.10500000       0.00000000
O        0.00000000       2.10500000       0.00000000
Mg       0.00000000       0.00000000       4.21000000
O        2.10500000       0.00000000       4.21000000
Mg       0.00000000       2.10500000       6.31500000
O        2.10500000       2.10500000       6.31500000
Mg       2.10500000       0.00000000       6.31500000
O        0.00000000       0.00000000       6.31500000
Mg       2.10500000       2.10500000       4.21000000
O        0.00000000       2.10500000       4.21000000
Mg       0.00000000       4.21000000       0.00000000
O        2.10500000       4.21000000       0.00000000
Mg       0.00000000       6.31500000       2.10500000
O        2.10500000       6.31500000       2.10500000
Mg       2.10500000       4.21000000       2.10500000
O        0.00000000       4.21000000       2.10500000
Mg       2.10500000       6.31500000       0.00000000
O        0.00000000       6.31500000       0.00000000
Mg       0.00000000       4.21000000       4.21000000
O        2.10500000       4.21000000       4.21000000
Mg       0.00000000       6.31500000       6.31500000
O        2.10500000       6.31500000       6.31500000
Mg       2.10500000       4.21000000       6.31500000
O        0.00000000       4.21000000       6.31500000
Mg       2.10500000       6.31500000       4.21000000
O        0.00000000       6.31500000       4.21000000
Mg       4.21000000       0.00000000       0.00000000
O        6.31500000       0.00000000       0.00000000
Mg       4.21000000       2.10500000       2.10500000
O        6.31500000       2.10500000       2.10500000
Mg       6.31500000       0.00000000       2.10500000
O        4.21000000       0.00000000       2.10500000
Mg       6.31500000       2.10500000       0.00000000
O        4.21000000       2.10500000       0.00000000
Mg       4.21000000       0.00000000       4.21000000
O        6.31500000       0.00000000       4.21000000
Mg       4.21000000       2.10500000       6.31500000
O        6.31500000       2.10500000       6.31500000
Mg       6.31500000       0.00000000       6.31500000
O        4.21000000       0.00000000       6.31500000
Mg       6.31500000       2.10500000       4.21000000
O        4.21000000       2.10500000       4.21000000
Mg       4.21000000       4.21000000       0.00000000
O        6.31500000       4.21000000       0.00000000
Mg       4.21000000       6.31500000       2.10500000
O        6.31500000       6.31500000       2.10500000
Mg       6.31500000       4.21000000       2.10500000
O        4.21000000       4.21000000       2.10500000
Mg       6.31500000       6.31500000       0.00000000
O        4.21000000       6.31500000       0.00000000
Mg       4.21000000       4.21000000       4.21000000
O        6.31500000       4.21000000       4.21000000
Mg       4.21000000       6.31500000       6.31500000
O        6.31500000       6.31500000       6.31500000
Mg       6.31500000       4.21000000       6.31500000
O        4.21000000       4.21000000       6.31500000
Mg       6.31500000       6.31500000       4.21000000
O        4.21000000       6.31500000       4.21000000
Li       1.05250000       1.05250000       1.05250000
