Si2
1.0
   3.4493862520432548    0.0000000000000000    1.9915038003503629
   1.1497954173477518    3.2521138357708965    1.9915038003503629
   0.0000000000000000    0.0000000000000000    3.9830076007007258
Si
2
direct
   0.8750000000000000    0.8750000000000000    0.8750000000000000 Si
   0.1250000000000000    0.1250000000000000    0.1250000000000000 Si
