pair_coeff * * /atomate2/tests/test_data/lammps/Si.tersoff Si
