Si8
1.0
   5.4388196591507336   -0.0040566925024074   -0.0000850152464223
  -0.0040367883392943    5.4374882369515651   -0.0034021195033038
  -0.0000668192244519   -0.0034268807805118    5.4363768829684176
Si
8
direct
   0.7501651415108638    0.7500585907984160    0.2513892377845411 Si
   0.0009377552742891    0.5001135683659957    0.5000789535733186 Si
   0.7501576776856186    0.2497510692502845    0.7488731257856577 Si
  -0.0012393174063465   -0.0000094612498901   -0.0001207635749921 Si
   0.2503089019793039    0.7498634455946017    0.7512294652504490 Si
   0.5011277490221560    0.4999853986849365    0.0000632714417516 Si
   0.2500087419557465    0.2499916955243856    0.2487626951135775 Si
   0.4985333499783690    0.0002456930312699    0.4997240146257038 Si
