Mg3 Sb2                                 
   1.0000000000000000     
     2.3003714889113014   -3.9843602950772401    0.0000000000000000
     2.3003714889113014    3.9843602950772401    0.0000000000000000
     0.0000000000000000    0.0000000000000000    7.2813299999999996
   Mg   Sb
     3     2
Direct
  0.0000000000000000  0.0000000000000000  0.0000000000000000
  0.3333333333333357  0.6666666666666643  0.3683249999999987
  0.6666666666666643  0.3333333333333357  0.6316750000000013
  0.3333333333333357  0.6666666666666643  0.7747489999999999
  0.6666666666666643  0.3333333333333357  0.2252510000000001

  0.00000000E+00  0.00000000E+00  0.00000000E+00
  0.00000000E+00  0.00000000E+00  0.00000000E+00
  0.00000000E+00  0.00000000E+00  0.00000000E+00
  0.00000000E+00  0.00000000E+00  0.00000000E+00
  0.00000000E+00  0.00000000E+00  0.00000000E+00
