LatticeConstant 1.0 Ang
%block LatticeVectors
 8.42000000 0.00000000 0.00000000
 0.00000000 8.42000000 0.00000000
 0.00000000 0.00000000 8.42000000
%endblock LatticeVectors

NumberOfAtoms 65
AtomicCoordinatesFormat Ang
%block AtomicCoordinatesAndAtomicSpecies
 -0.00068719  0.00240690  0.00241523 1 #  1: Mg
  2.10592217 -0.02138150 -0.02138161 2 #  2: O
 -0.00259815  2.09911425  2.09911292 1 #  3: Mg
  2.08271016  2.14673507  2.14673616 2 #  4: O
  2.08385932 -0.01738998  2.12044223 1 #  5: Mg
  0.05681355 -0.01404124  2.12759455 2 #  6: O
  2.08385970  2.12044238 -0.01738976 1 #  7: Mg
  0.05681360  2.12759634 -0.01404774 2 #  8: O
 -0.00653452 -0.01180123  4.20876928 1 #  9: Mg
  2.14229524  0.02203759  4.23477973 2 # 10: O
 -0.00153188  2.11690813  6.31269213 1 # 11: Mg
  2.14020314  2.09951599  6.30156093 2 # 12: O
  2.09935691 -0.00203657  6.31145325 1 # 13: Mg
  0.00212974 -0.01317119  6.28425830 2 # 14: O
  2.09866964  2.11640683  4.21299275 1 # 15: Mg
 -0.01841867  2.10708707  4.24289498 2 # 16: O
 -0.00653480  4.20876840 -0.01179898 1 # 17: Mg
  2.14229749  4.23477918  0.02203740 2 # 18: O
 -0.00152835  6.31269143  2.11690744 1 # 19: Mg
  2.14020476  6.30156229  2.09951441 2 # 20: O
  2.09866738  4.21299313  2.11640549 1 # 21: Mg
 -0.01842116  4.24289116  2.10708805 2 # 22: O
  2.09935251  6.31145433 -0.00202977 1 # 23: Mg
  0.00213216  6.28425997 -0.01317546 2 # 24: O
  0.00701176  4.21569885  4.21569357 1 # 25: Mg
  2.14428840  4.17446945  4.17447372 2 # 26: O
 -0.00927584  6.30854559  6.30853905 1 # 27: Mg
  2.13806671  6.30110238  6.30110103 2 # 28: O
  2.10078146  4.22408903  6.30555971 1 # 29: Mg
 -0.02260883  4.18063603  6.32414271 2 # 30: O
  2.10078018  6.30556424  4.22409237 1 # 31: Mg
 -0.02260804  6.32413971  4.18064067 2 # 32: O
  4.22270053 -0.00848625 -0.00848620 1 # 33: Mg
  6.26631726 -0.00085627 -0.00084529 2 # 34: O
  4.22493234  2.11408239  2.11408176 1 # 35: Mg
  6.26924482  2.11228091  2.11229021 2 # 36: O
  6.31925075  0.01381309  2.10355557 1 # 37: Mg
  4.18606637 -0.01070984  2.10442470 2 # 38: O
  6.31924685  2.10358262  0.01381586 1 # 39: Mg
  4.18606145  2.10441828 -0.01070896 2 # 40: O
  4.21579095 -0.01297578  4.21687474 1 # 41: Mg
  6.27759008  0.01900907  4.23240245 2 # 42: O
  4.20882905  2.11746552  6.31134914 1 # 43: Mg
  6.27920823  2.09124865  6.29287269 2 # 44: O
  6.32650592 -0.01107385  6.30948042 1 # 45: Mg
  4.19745189  0.01184245  6.29381787 2 # 46: O
  6.32797310  2.09433453  4.21023441 1 # 47: Mg
  4.17459483  2.10970294  4.17688183 2 # 48: O
  4.21579155  4.21687288 -0.01297650 1 # 49: Mg
  6.27759058  4.23238895  0.01900602 2 # 50: O
  4.20882716  6.31134861  2.11746546 1 # 51: Mg
  6.27920195  6.29286465  2.09122480 2 # 52: O
  6.32797799  4.21023906  2.09433801 1 # 53: Mg
  4.17459314  4.17688327  2.10970663 2 # 54: O
  6.32650750  6.30948418 -0.01107145 1 # 55: Mg
  4.19745139  6.29381889  0.01184270 2 # 56: O
  4.19902973  4.21902919  4.21902891 1 # 57: Mg
  6.30324507  4.20293842  4.20294295 2 # 58: O
  4.21026260  6.30415601  6.30415606 1 # 59: Mg
  6.31472764  6.33452812  6.33451828 2 # 60: O
  6.32221377  4.22295437  6.30766339 1 # 61: Mg
  4.21672880  4.17664442  6.34565323 2 # 62: O
  6.32221416  6.30766208  4.22295491 1 # 63: Mg
  4.21672811  6.34565138  4.17664334 2 # 64: O
  3.04138956  1.05118358  1.05118352 3 # 65: Li
%endblock AtomicCoordinatesAndAtomicSpecies

NumberOfSpecies 3
%block ChemicalSpeciesLabel
 1 12 Mg
 2 8 O
 3 3 Li
%endblock ChemicalSpeciesLabel
