LatticeConstant 1.0 Ang
%block LatticeVectors
 8.42000000 0.00000000 0.00000000
 0.00000000 8.42000000 0.00000000
 0.00000000 0.00000000 8.42000000
%endblock LatticeVectors

NumberOfAtoms 65
AtomicCoordinatesFormat Ang
%block AtomicCoordinatesAndAtomicSpecies
 -0.00143384 -0.00016156 -0.00016155 1 #  1: Mg
  2.10786507  0.00286507  0.00286507 2 #  2: O
 -0.00143384  2.10516155  2.10516155 1 #  3: Mg
  2.10786507  2.10213493  2.10213494 2 #  4: O
  2.09118115 -0.01381885  2.11881886 1 #  5: Mg
  0.00076169  0.00043474  2.10456526 2 #  6: O
  2.09118114  2.11881886 -0.01381885 1 #  7: Mg
  0.00076169  2.10456525  0.00043474 2 #  8: O
 -0.00022763 -0.00015962  4.21022763 1 #  9: Mg
  2.10543475  0.00043475  4.20923831 2 # 10: O
 -0.00022763  2.10515963  6.31477237 1 # 11: Mg
  2.10543475  2.10456526  6.31576169 2 # 12: O
  2.10483845 -0.00016155  6.31356616 1 # 13: Mg
  0.00055148  0.00014233  6.31555148 2 # 14: O
  2.10483845  2.10516155  4.21143384 1 # 15: Mg
  0.00055148  2.10485767  4.20944852 2 # 16: O
 -0.00022763  4.21022762 -0.00015962 1 # 17: Mg
  2.10543474  4.20923830  0.00043474 2 # 18: O
 -0.00022762  6.31477238  2.10515960 1 # 19: Mg
  2.10543474  6.31576169  2.10456526 2 # 20: O
  2.10483845  4.21143384  2.10516155 1 # 21: Mg
  0.00055147  4.20944852  2.10485767 2 # 22: O
  2.10483844  6.31356616 -0.00016155 1 # 23: Mg
  0.00055147  6.31555148  0.00014233 2 # 24: O
 -0.00017196  4.21017196  4.21017196 1 # 25: Mg
  2.10514233  4.20944852  4.20944853 2 # 26: O
 -0.00017196  6.31482804  6.31482805 1 # 27: Mg
  2.10514233  6.31555147  6.31555147 2 # 28: O
  2.10484039  4.21022764  6.31477237 1 # 29: Mg
  0.00016647  4.20983353  6.31516647 2 # 30: O
  2.10484038  6.31477237  4.21022762 1 # 31: Mg
  0.00016647  6.31516647  4.20983353 2 # 32: O
  4.22381885 -0.01381885 -0.01381885 1 # 33: Mg
  6.31423831  0.00043474  0.00043474 2 # 34: O
  4.22381884  2.11881884  2.11881885 1 # 35: Mg
  6.31423831  2.10456526  2.10456525 2 # 36: O
  6.31643384 -0.00016155  2.10516154 1 # 37: Mg
  4.20713493  0.00286507  2.10213493 2 # 38: O
  6.31643382  2.10516156 -0.00016155 1 # 39: Mg
  4.20713493  2.10213493  0.00286507 2 # 40: O
  4.21016155 -0.00016155  4.21143383 1 # 41: Mg
  6.31444853  0.00014233  4.20944853 2 # 42: O
  4.21016155  2.10516156  6.31356615 1 # 43: Mg
  6.31444853  2.10485767  6.31555148 2 # 44: O
  6.31522763 -0.00015961  6.31477238 1 # 45: Mg
  4.20956526  0.00043475  6.31576169 2 # 46: O
  6.31522763  2.10515962  4.21022763 1 # 47: Mg
  4.20956525  2.10456526  4.20923831 2 # 48: O
  4.21016155  4.21143384 -0.00016156 1 # 49: Mg
  6.31444853  4.20944853  0.00014233 2 # 50: O
  4.21016156  6.31356615  2.10516155 1 # 51: Mg
  6.31444852  6.31555148  2.10485767 2 # 52: O
  6.31522763  4.21022762  2.10515962 1 # 53: Mg
  4.20956526  4.20923831  2.10456526 2 # 54: O
  6.31522763  6.31477238 -0.00015961 1 # 55: Mg
  4.20956526  6.31576169  0.00043474 2 # 56: O
  4.21015961  4.21022762  4.21022763 1 # 57: Mg
  6.31483353  4.20983353  4.20983353 2 # 58: O
  4.21015962  6.31477237  6.31477237 1 # 59: Mg
  6.31483353  6.31516647  6.31516647 2 # 60: O
  6.31517196  4.21017196  6.31482803 1 # 61: Mg
  4.20985767  4.20944852  6.31555147 2 # 62: O
  6.31517196  6.31482803  4.21017197 1 # 63: Mg
  4.20985767  6.31555147  4.20944853 2 # 64: O
  3.15750000  1.05250000  1.05250000 3 # 65: Li
%endblock AtomicCoordinatesAndAtomicSpecies

NumberOfSpecies 3
%block ChemicalSpeciesLabel
 1 12 Mg
 2 8 O
 3 3 Li
%endblock ChemicalSpeciesLabel
