ALGO = Normal
EDIFF = 1e-06
ENCUT = 520
IBRION = -1
ISMEAR = -5
ISPIN = 2
ISYM = 0
LASPH = True
LCHARG = True
LMAXMIX = 4
LORBIT = 11
LREAL = False
LWAVE = True
MAGMOM = 2*2.758
NBANDS = 18
NELM = 100
NSW = 0
PREC = Accurate
SIGMA = 0.05
