#===============================================================================
# Created using the Atomic Simulation Environment (ASE)

# Thu Sep 28 15:04:15 2023

#=======================================================
lattice_vector 0.0000000800000000 2.8151761899999999 2.8151761899999999 
lattice_vector 2.8151760900000000 -0.0000000400000000 2.8151761400000002 
lattice_vector 2.8151761000000000 2.8151761500000001 -0.0000000400000000 
atom_frac 0.4999999946717366 0.5000000000000001 0.5000000053282636 Si
atom_frac 0.7500000088804388 0.7499999991119556 0.7499999928956491 Si
