pymatgen with grid density = 607 / number of atoms
0
Gamma
6 6 6
