Ba1 Te1                                 
   1.00000000000000     
     0.0000000000000000    3.5448789999999999    3.5448789999999999
     3.5448789999999999    0.0000000000000000    3.5448789999999999
     3.5448789999999999    3.5448789999999999    0.0000000000000000
   Ba   Te
     1     1
Direct
  0.0000000000000000  0.0000000000000000  0.0000000000000000
  0.5000000000000000  0.5000000000000000  0.5000000000000000
 
  0.00000000E+00  0.00000000E+00  0.00000000E+00
  0.00000000E+00  0.00000000E+00  0.00000000E+00
