Ba1 Te1
1.0
   0.0000000000000000    3.5448789999999999    3.5448789999999999
   3.5448789999999999    0.0000000000000000    3.5448789999999999
   3.5448789999999999    3.5448789999999999    0.0000000000000000
Ba Te
1 1
direct
   0.0000000000000000    0.0000000000000000    0.0000000000000000 Ba
   0.5000000000000000    0.5000000000000000    0.5000000000000000 Te
