ALGO = Gw0
ENCUTGW = 250
ICHARG = 1
ISMEAR = 0
ISPIN = 1
LORBIT = 11
LREAL = Auto
LWAVE = True
NBANDS = 48
NELM = 1
NOMEGA = 80
PREC = Accurate
SIGMA = 0.01
