Au16 O1
1.0
   8.3973470668481660    0.0000000000000000    0.0000000000000005
   0.0000000000000014    8.3973470668481660    0.0000000000000005
   0.0000000000000000    0.0000000000000000   25.1920412005444980
Au O
16 1
direct
  -0.0000000000000000   -0.0000000000000000    0.4511430595031358 Au
  -0.0000000000000000    0.5000000000000000    0.4681793006633964 Au
   0.5000000000000000   -0.0000000000000000    0.4681793006633964 Au
   0.5000000000000000    0.5000000000000000    0.4599460166402662 Au
  -0.0000000000000000    0.2513120528528345    0.5444642376321651 Au
  -0.0000000000000000    0.7486879471471655    0.5444642376321651 Au
   0.5000000000000000    0.2571499617482194    0.5420486633863140 Au
   0.5000000000000000    0.7428500382517809    0.5420486633863140 Au
   0.2513120528528345   -0.0000000000000000    0.5444642376321651 Au
   0.2571499617482194    0.5000000000000000    0.5420486633863140 Au
   0.7486879471471655   -0.0000000000000000    0.5444642376321651 Au
   0.7428500382517809    0.5000000000000000    0.5420486633863140 Au
   0.2429742615168994    0.2429742615168994    0.4606690738353939 Au
   0.2429742615168994    0.7570257384831008    0.4606690738353939 Au
   0.7570257384831008    0.2429742615168994    0.4606690738353939 Au
   0.7570257384831008    0.7570257384831008    0.4606690738353939 Au
  -0.0000000000000000   -0.0000000000000000    0.5848812425708549 O
