Au16 O1
1.0
   8.3927098129985858    0.0000000000000000    0.0000000000000005
   0.0000000000000013    8.3927098129985858    0.0000000000000005
   0.0000000000000000    0.0000000000000000   25.1781294389957573
Au O
16 1
direct
   0.0000000000000000    0.0000000000000000    0.4512263651147924 Au
   0.0000000000000000    0.5000000000000000    0.4677533651805366 Au
   0.5000000000000000    0.0000000000000000    0.4677533651805366 Au
   0.5000000000000000    0.5000000000000000    0.4603728054485783 Au
   0.0000000000000000    0.2523033074538518    0.5445195596467475 Au
   0.0000000000000000    0.7476966925461481    0.5445195596467475 Au
   0.5000000000000000    0.2548674937428096    0.5426974555101883 Au
   0.5000000000000000    0.7451325062571902    0.5426974555101883 Au
   0.2523033074538518    0.0000000000000000    0.5445195596467475 Au
   0.2548674937428096    0.5000000000000000    0.5426974555101883 Au
   0.7476966925461481    0.0000000000000000    0.5445195596467475 Au
   0.7451325062571902    0.5000000000000000    0.5426974555101883 Au
   0.2423758718257043    0.2423758718257043    0.4600787486275483 Au
   0.2423758718257043    0.7576241281742959    0.4600787486275483 Au
   0.7576241281742959    0.2423758718257043    0.4600787486275483 Au
   0.7576241281742959    0.7576241281742959    0.4600787486275483 Au
   0.0000000000000000    0.0000000000000000    0.5848117291180873 O
