pymatgen with grid density = 475 / number of atoms
0
Gamma
4 4 1
