Au16 O1
1.0
   8.3927098129985858    0.0000000000000000    0.0000000000000005
   0.0000000000000013    8.3927098129985858    0.0000000000000005
   0.0000000000000000    0.0000000000000000   25.1781294389957573
Au O
16 1
direct
  -0.0000000000000000    0.0091632460795601    0.4606721212217376 Au
  -0.0000000000000000    0.4908367539204400    0.4606721212217376 Au
   0.5000000000000000   -0.0038655188345893    0.4578177574793232 Au
   0.5000000000000000    0.5038655188345893    0.4578177574793232 Au
  -0.0000000000000000    0.2500000000000000    0.5472970637935265 Au
  -0.0000000000000000    0.7500000000000000    0.5369491965881117 Au
   0.5000000000000000    0.2500000000000000    0.5369491965881117 Au
   0.5000000000000000    0.7500000000000000    0.5429625926294006 Au
   0.2568660434812416   -0.0068660434812417    0.5400076063122774 Au
   0.2568660434812416    0.5068660434812418    0.5400076063122774 Au
   0.7431339565187582   -0.0068660434812417    0.5400076063122774 Au
   0.7431339565187582    0.5068660434812418    0.5400076063122774 Au
   0.2408367539204398    0.2500000000000000    0.4606721212217376 Au
   0.2538655188345894    0.7500000000000000    0.4578177574793232 Au
   0.7591632460795602    0.2500000000000000    0.4606721212217376 Au
   0.7461344811654106    0.7500000000000000    0.4578177574793232 Au
  -0.0000000000000000    0.2500000000000000    0.6229526955279634 O
