Au16 O1
1.0
   8.3973470668481660    0.0000000000000000    0.0000000000000005
   0.0000000000000014    8.3973470668481660    0.0000000000000005
   0.0000000000000000    0.0000000000000000   25.1920412005444980
Au O
16 1
direct
  -0.0000000000000000    0.0086033816389772    0.4609361989342440 Au
  -0.0000000000000000    0.4913966183610228    0.4609361989342440 Au
   0.5000000000000000   -0.0033390540432865    0.4576525618738787 Au
   0.5000000000000000    0.5033390540432865    0.4576525618738787 Au
  -0.0000000000000000    0.2500000000000000    0.5466254264896492 Au
  -0.0000000000000000    0.7500000000000000    0.5369396097699555 Au
   0.5000000000000000    0.2500000000000000    0.5369396097699555 Au
   0.5000000000000000    0.7500000000000000    0.5430427801550559 Au
   0.2584529191498132   -0.0084529191498131    0.5402167255432531 Au
   0.2584529191498132    0.5084529191498129    0.5402167255432531 Au
   0.7415470808501871   -0.0084529191498131    0.5402167255432531 Au
   0.7415470808501871    0.5084529191498129    0.5402167255432531 Au
   0.2413966183610227    0.2500000000000000    0.4609361989342440 Au
   0.2533390540432865    0.7500000000000000    0.4576525618738787 Au
   0.7586033816389772    0.2500000000000000    0.4609361989342440 Au
   0.7466609459567135    0.7500000000000000    0.4576525618738787 Au
  -0.0000000000000000    0.2500000000000000    0.6222874478664222 O
