#===============================================================================
# Created using the Atomic Simulation Environment (ASE)

# Thu Jun 29 16:05:56 2023

#=======================================================
lattice_vector 0.0000000000000000 2.7149999999999999 2.7149999999999999 
lattice_vector 2.7149999999999999 0.0000000000000000 2.7149999999999999 
lattice_vector 2.7149999999999999 2.7149999999999999 0.0000000000000000 
atom_frac 0.0000000000000000 0.0000000000000000 -0.0000000000000000 Si
atom_frac 0.2500000000000000 0.2500000000000000 0.2500000000000000 Si
