Si8
1.0
   5.4599999999999991    0.0000000000000001    0.0000000000000001
   0.0000000000000001    5.4599999999999991   -0.0000000000000001
  -0.0000000000000001   -0.0000000000000001    5.4599999999999991
Si
8
direct
   0.0018315018315018   -0.0000000000000000   -0.0000000000000000 Si
   1.0000000000000000    0.5000000000000000    0.5000000000000000 Si
   0.5000000000000000   -0.0000000000000000    0.5000000000000000 Si
   0.4999999999999999    0.5000000000000000    0.0000000000000000 Si
   0.2500000000000000    0.2500000000000000    0.2500000000000000 Si
   0.2500000000000000    0.7500000000000001    0.7500000000000000 Si
   0.7500000000000000    0.2500000000000000    0.7500000000000001 Si
   0.7500000000000000    0.7500000000000001    0.2500000000000000 Si
