Non SCF run along symmetry lines
164
Reciprocal
0.0 0.0 0.0 1 \Gamma
0.02173913043478261 0.0 0.02173913043478261 1
0.04347826086956522 0.0 0.04347826086956522 1
0.06521739130434782 0.0 0.06521739130434782 1
0.08695652173913045 0.0 0.08695652173913045 1
0.10869565217391304 0.0 0.10869565217391304 1
0.13043478260869565 0.0 0.13043478260869565 1
0.15217391304347827 0.0 0.15217391304347827 1
0.1739130434782609 0.0 0.1739130434782609 1
0.1956521739130435 0.0 0.1956521739130435 1
0.21739130434782608 0.0 0.21739130434782608 1
0.2391304347826087 0.0 0.2391304347826087 1
0.2608695652173913 0.0 0.2608695652173913 1
0.2826086956521739 0.0 0.2826086956521739 1
0.30434782608695654 0.0 0.30434782608695654 1
0.32608695652173914 0.0 0.32608695652173914 1
0.3478260869565218 0.0 0.3478260869565218 1
0.3695652173913043 0.0 0.3695652173913043 1
0.391304347826087 0.0 0.391304347826087 1
0.41304347826086957 0.0 0.41304347826086957 1
0.43478260869565216 0.0 0.43478260869565216 1
0.4565217391304348 0.0 0.4565217391304348 1
0.4782608695652174 0.0 0.4782608695652174 1
0.5 0.0 0.5 1 X
0.5 0.0 0.5 1 X
0.5 0.020833333333333336 0.5208333333333334 1
0.5 0.04166666666666667 0.5416666666666666 1
0.5 0.0625 0.5625 1
0.5 0.08333333333333334 0.5833333333333334 1
0.5 0.10416666666666667 0.6041666666666666 1
0.5 0.125 0.625 1
0.5 0.14583333333333334 0.6458333333333333 1
0.5 0.16666666666666669 0.6666666666666666 1
0.5 0.1875 0.6875 1
0.5 0.20833333333333334 0.7083333333333333 1
0.5 0.22916666666666669 0.7291666666666666 1
0.5 0.25 0.75 1 W
0.5 0.25 0.75 1 W
0.48611111111111116 0.2638888888888889 0.75 1
0.4722222222222222 0.2777777777777778 0.75 1
0.45833333333333337 0.2916666666666667 0.75 1
0.4444444444444445 0.3055555555555555 0.75 1
0.4305555555555556 0.3194444444444445 0.75 1
0.41666666666666674 0.33333333333333337 0.75 1
0.40277777777777785 0.34722222222222227 0.75 1
0.38888888888888895 0.3611111111111111 0.75 1
0.37500000000000006 0.375 0.75 1 K
0.37500000000000006 0.375 0.75 1 K
0.36000000000000004 0.36 0.72 1
0.3450000000000001 0.34500000000000003 0.6900000000000001 1
0.33000000000000007 0.33 0.66 1
0.31500000000000006 0.315 0.63 1
0.30000000000000004 0.3 0.6000000000000001 1
0.28500000000000003 0.285 0.5700000000000001 1
0.27 0.27 0.54 1
0.25500000000000006 0.255 0.51 1
0.24000000000000005 0.24000000000000005 0.4800000000000001 1
0.22500000000000003 0.22499999999999998 0.44999999999999996 1
0.21000000000000005 0.21000000000000002 0.42000000000000004 1
0.19500000000000003 0.195 0.39 1
0.18000000000000002 0.18 0.36 1
0.165 0.16499999999999998 0.32999999999999996 1
0.15000000000000002 0.15000000000000002 0.30000000000000004 1
0.135 0.135 0.27 1
0.12000000000000002 0.11999999999999997 0.24 1
0.10500000000000002 0.10500000000000002 0.21000000000000002 1
0.09000000000000001 0.09000000000000001 0.18 1
0.07500000000000001 0.07499999999999997 0.14999999999999997 1
0.06000000000000001 0.06000000000000001 0.12000000000000002 1
0.045000000000000005 0.045000000000000005 0.09 1
0.030000000000000006 0.030000000000000006 0.06000000000000001 1
0.015000000000000003 0.015000000000000003 0.030000000000000006 1
0.0 0.0 0.0 1 \Gamma
0.0 0.0 0.0 1 \Gamma
0.025 0.025 0.025 1
0.05 0.05 0.05 1
0.07500000000000001 0.075 0.07500000000000001 1
0.1 0.1 0.1 1
0.125 0.125 0.125 1
0.15000000000000002 0.15 0.15000000000000002 1
0.175 0.175 0.175 1
0.2 0.2 0.2 1
0.22500000000000003 0.22500000000000003 0.22500000000000003 1
0.25 0.25 0.25 1
0.275 0.275 0.275 1
0.30000000000000004 0.3 0.30000000000000004 1
0.325 0.325 0.325 1
0.35 0.35 0.35 1
0.375 0.375 0.375 1
0.4 0.4 0.4 1
0.42500000000000004 0.425 0.42500000000000004 1
0.45000000000000007 0.45000000000000007 0.45000000000000007 1
0.475 0.475 0.475 1
0.5 0.5 0.5 1 L
0.5 0.5 0.5 1 L
0.5083333333333333 0.4833333333333334 0.5083333333333333 1
0.5166666666666667 0.46666666666666673 0.5166666666666667 1
0.525 0.44999999999999996 0.525 1
0.5333333333333333 0.43333333333333335 0.5333333333333333 1
0.5416666666666667 0.4166666666666667 0.5416666666666667 1
0.55 0.4 0.55 1
0.5583333333333333 0.38333333333333336 0.5583333333333333 1
0.5666666666666667 0.3666666666666667 0.5666666666666667 1
0.575 0.35 0.575 1
0.5833333333333334 0.33333333333333337 0.5833333333333334 1
0.5916666666666667 0.3166666666666667 0.5916666666666667 1
0.6 0.3 0.6 1
0.6083333333333334 0.2833333333333333 0.6083333333333334 1
0.6166666666666667 0.26666666666666666 0.6166666666666667 1
0.625 0.25 0.625 1 U
0.625 0.25 0.625 1 U
0.6111111111111112 0.25 0.6388888888888888 1
0.5972222222222222 0.25 0.6527777777777777 1
0.5833333333333334 0.25 0.6666666666666666 1
0.5694444444444444 0.25 0.6805555555555556 1
0.5555555555555556 0.25 0.6944444444444444 1
0.5416666666666666 0.25 0.7083333333333333 1
0.5277777777777778 0.25 0.7222222222222222 1
0.513888888888889 0.25 0.736111111111111 1
0.5 0.25 0.75 1 W
0.5 0.25 0.75 1 W
0.5 0.2647058823529412 0.7352941176470589 1
0.5 0.27941176470588236 0.7205882352941176 1
0.5 0.29411764705882354 0.7058823529411764 1
0.5 0.3088235294117647 0.6911764705882353 1
0.5 0.3235294117647059 0.6764705882352942 1
0.5 0.3382352941176471 0.6617647058823529 1
0.5 0.3529411764705882 0.6470588235294118 1
0.5 0.3676470588235294 0.6323529411764706 1
0.5 0.3823529411764706 0.6176470588235294 1
0.5 0.3970588235294118 0.6029411764705882 1
0.5000000000000001 0.4117647058823529 0.5882352941176471 1
0.5 0.42647058823529416 0.5735294117647058 1
0.5 0.4411764705882353 0.5588235294117647 1
0.5 0.45588235294117646 0.5441176470588236 1
0.5 0.47058823529411764 0.5294117647058824 1
0.5 0.48529411764705876 0.5147058823529412 1
0.5 0.5 0.5 1 L
0.5 0.5 0.5 1 L
0.4916666666666667 0.4916666666666667 0.5166666666666666 1
0.4833333333333334 0.48333333333333334 0.5333333333333333 1
0.4750000000000001 0.47500000000000003 0.55 1
0.4666666666666667 0.4666666666666667 0.5666666666666667 1
0.45833333333333337 0.45833333333333337 0.5833333333333334 1
0.45000000000000007 0.44999999999999996 0.6000000000000001 1
0.4416666666666667 0.44166666666666665 0.6166666666666667 1
0.43333333333333335 0.4333333333333334 0.6333333333333333 1
0.42500000000000004 0.42500000000000004 0.65 1
0.4166666666666667 0.41666666666666674 0.6666666666666667 1
0.40833333333333344 0.4083333333333334 0.6833333333333333 1
0.4000000000000001 0.39999999999999997 0.7 1
0.3916666666666667 0.3916666666666667 0.7166666666666668 1
0.3833333333333334 0.38333333333333336 0.7333333333333334 1
0.37500000000000006 0.375 0.75 1 K
0.625 0.25 0.625 1 U
0.6111111111111112 0.22222222222222224 0.6111111111111112 1
0.5972222222222222 0.19444444444444445 0.5972222222222222 1
0.5833333333333334 0.16666666666666669 0.5833333333333334 1
0.5694444444444444 0.13888888888888892 0.5694444444444444 1
0.5555555555555556 0.1111111111111111 0.5555555555555556 1
0.5416666666666666 0.08333333333333334 0.5416666666666666 1
0.5277777777777778 0.05555555555555555 0.5277777777777778 1
0.513888888888889 0.02777777777777781 0.513888888888889 1
0.5 0.0 0.5 1 X
