ALGO = Fast
EDIFF = 1e-05
ENAUG = 1360
ENCUT = 400
GGA = Ps
ISMEAR = -5
ISPIN = 1
LAECHG = True
LASPH = True
LCALCPOL = True
LCHARG = True
LELF = False
LMAXMIX = 4
LMIXTAU = True
LORBIT = 11
LREAL = False
LVTOT = True
LWAVE = False
NELM = 200
NSW = 0
PREC = Accurate
SIGMA = 0.2
