ALGO = Fast
EDIFF = 1e-05
ENAUG = 1360
ENCUT = 680
GGA = Ps
ISMEAR = -5
ISPIN = 2
KSPACING = 0.22
LAECHG = True
LASPH = True
LCALCPOL = True
LCHARG = True
LELF = False
LMAXMIX = 4
LMIXTAU = True
LORBIT = 11
LREAL = False
LVTOT = True
LWAVE = False
MAGMOM = 5*0.6
NELM = 200
NSW = 0
PREC = Accurate
SIGMA = 0.2
