K1 Nb1 O3
1.0
   4.0286650000000002    0.0000000000000000    0.0000000000000002
   0.0000000000000006    4.0286649999999993    0.0000000000000003
   0.0000000000000000    0.0000000000000001    4.2187400000000004
K Nb O
1 1 3
direct
   0.5000000000000000    0.5000000000000000    0.5026055000000014 K
   0.0000000000000000    0.0000000000000000    0.0108734999999988 Nb
   0.5000000000000000    0.0000000000000000    0.9862755000000014 O
   0.0000000000000000    0.5000000000000000    0.9862755000000014 O
   0.0000000000000000    0.0000000000000000    0.4813705000000006 O
