Si8
1.0
   5.7048647662555423    0.0000000000000000    0.0000000000000003
   0.0000000000000009    5.7048647662555423    0.0000000000000003
   0.0000000000000000    0.0000000000000000    5.7048647662555423
Si
8
direct
   0.7137992540595657    0.7860707594991979    0.2380070190881525 Si
   0.9436549704757654    0.5008077659284943    0.4689973229895363 Si
   0.7739096134411505    0.2141807113173987    0.8086855395663732 Si
   0.0832715043610377    0.9435735639418066    0.0487158359375653 Si
   0.2571559009807116    0.7328582666067787    0.6845864989848101 Si
   0.4834647317363991    0.5061207539906384    0.9881346095430054 Si
   0.2454846537753502    0.2916394299165386    0.2514448568059974 Si
   0.4992593701700199    0.0247487427991464    0.5114283200845597 Si

  -0.0017183723000000    0.0081647164000000    0.0009941996100000
  -0.0056632634000000    0.0014605474000000   -0.0093227668000000
  -0.0012230698000000   -0.0062589884000000    0.0096480613000000
   0.0188756680000000   -0.0131560820000000    0.0113656210000000
   0.0048015497000000   -0.0005543371800000   -0.0109323030000000
  -0.0064788117000000    0.0057694143000000    0.0016051980000000
  -0.0034205205000000    0.0042678078000000    0.0010428396000000
  -0.0051731801000000    0.0003069211300000   -0.0044008491000000

1
   2.00000000000000
 -0.76959607E+00  0.23482685E-01  0.75537357E-02 -0.78511428E+00
   0.7131968300000000    0.7889331300000000    0.2383555600000000
   0.9416695500000000    0.5013198000000000    0.4657289700000000
   0.7734808300000000    0.2119864500000000    0.8120679400000000
   0.0898888980000000    0.9389613300000000    0.0527003720000000
   0.2588392200000000    0.7326639300000000    0.6807538700000000
   0.4811934000000000    0.5081433800000000    0.9886973600000000
   0.2442854900000000    0.2931356300000000    0.2518104500000000
   0.4974457700000000    0.0248563430000000    0.5098854800000000
   0.0000000000000000    0.0000000000000000    0.0000000000000000
   0.0000000000000000    0.0000000000000000    0.0000000000000000
   0.0000000000000000    0.0000000000000000    0.0000000000000000
   0.0000000000000000    0.0000000000000000    0.0000000000000000
   0.0000000000000000    0.0000000000000000    0.0000000000000000
   0.0000000000000000    0.0000000000000000    0.0000000000000000
   0.0000000000000000    0.0000000000000000    0.0000000000000000
   0.0000000000000000    0.0000000000000000    0.0000000000000000
   0.0000000000000000    0.0000000000000000    0.0000000000000000
   0.0000000000000000    0.0000000000000000    0.0000000000000000
   0.0000000000000000    0.0000000000000000    0.0000000000000000
   0.0000000000000000    0.0000000000000000    0.0000000000000000
   0.0000000000000000    0.0000000000000000    0.0000000000000000
   0.0000000000000000    0.0000000000000000    0.0000000000000000
   0.0000000000000000    0.0000000000000000    0.0000000000000000
   0.0000000000000000    0.0000000000000000    0.0000000000000000
