ALGO = Normal
EDIFF = 1e-05
EDIFFG = -0.02
ENAUG = 1360.0
ENCUT = 680.0
IBRION = -1
ICHARG = 11
ISIF = 3
ISMEAR = 0
ISPIN = 1
ISYM = 0
LAECHG = True
LASPH = True
LCHARG = False
LELF = True
LMIXTAU = True
LORBIT = 11
LREAL = Auto
LVTOT = True
LWAVE = False
NBANDS = 15
NELM = 200
NSW = 0
PREC = Accurate
SIGMA = 0.01
