Si2
1.0
  -0.0000000000000000    2.7178260680321404    2.7178260680321404
   2.7178260680321404   -0.0000000000000000    2.7178260680321404
   2.7178260680321404    2.7178260680321404    0.0000000000000000
Si
2
direct
   0.0000000000000000    0.0000000000000000    0.0000000000000000 Si
   0.2500000000000000    0.2500000000000000    0.2500000000000000 Si
