Si2
1.0
  -0.0000000000000000    2.7178050682170114    2.7178050682170114
   2.7178050682170114   -0.0000000000000000    2.7178050682170114
   2.7178050682170114    2.7178050682170114   -0.0000000000000000
Si
2
direct
   0.0000000000000000    0.0000000000000000    0.0000000000000000 Si
   0.2500000000000000    0.2500000000000000    0.2500000000000000 Si

   0.0000000000000000    0.0000000000000000    0.0000000000000000
   0.0000000000000000    0.0000000000000000    0.0000000000000000
