ALGO = Fast
EDIFF = 1e-05
EDIFFG = -0.1
ENAUG = 1360
ENCUT = 680
ISIF = 2
ISMEAR = -5
ISPIN = 2
LAECHG = True
LASPH = True
LCHARG = True
LELF = False
LMIXTAU = True
LORBIT = 11
LREAL = False
LVTOT = True
LWAVE = False
MAGMOM = 4*0.0
METAGGA = R2scan
NCORE = 12
NELM = 200
NGX = 18
NGY = 18
NGZ = 60
NSW = 0
PREC = Accurate
SIGMA = 0.2
