pymatgen with grid density = 1159 / number of atoms
0
Gamma
6 6 5
