Si2
1.0
   3.3154295043910893    0.0000000000000000    1.9141638469386983
   1.1051431681303634    3.1258181528283377    1.9141638469386983
   0.0000000000000000    0.0000000000000000    3.8283276938773967
Si
2
direct
   0.8750000000000000    0.8750000000000000    0.8750000000000000 Si
   0.1250000000000000    0.1250000000000000    0.1250000000000000 Si
