special k-point
1
Reciprocal
0.25 0.25 0.25 1
