pymatgen with grid density = 88 / number of atoms
0
Gamma
3 3 1
