H2 C4
1.0
   1.2338620000000000   -2.1371120000000001    0.0000000000000000
   1.2338620000000000    2.1371120000000001    0.0000000000000000
   0.0000000000000000    0.0000000000000000    8.6850380000000005
H C
2 4
direct
   0.4444444444444444    0.7222222222222223    0.4833333333333334 H+
   0.0000000000000000    0.5000000000000000    0.0000000000000000 H+
   0.9036950000000000    0.9518480000000000    0.6974110000000000 C0.25-
   0.0963050000000000    0.0481520000000000    0.3025890000000000 C0.25-
   0.2373350000000000    0.6186680000000000    0.6984530000000000 C0.25-
   0.7626650000000000    0.3813320000000000    0.3015470000000000 C0.25-
