ALGO = Normal
EDIFF = 1e-07
EDIFFG = -0.001
ENAUG = 1360.0
ENCUT = 700.0
IBRION = 2
ISIF = 2
ISMEAR = -5
ISPIN = 2
KSPACING = 0.2925287784072645
LAECHG = False
LASPH = True
LCHARG = True
LELF = True
LMIXTAU = True
LORBIT = 11
LREAL = False
LVTOT = True
LWAVE = False
MAGMOM = 2*-0.0
NELM = 200
NSW = 99
PREC = Accurate
SIGMA = 0.05
