Si2
1.0
0.000000 2.752777 2.752777
2.725110 0.000000 2.752777
2.725110 2.752777 0.000000
Si
2
direct
0.750000 0.750000 0.750000 Si
0.500000 0.500000 0.500000 Si
