LatticeConstant 1.0 Ang
%block LatticeVectors
 8.42000000 0.00000000 0.00000000
 0.00000000 8.42000000 0.00000000
 0.00000000 0.00000000 8.42000000
%endblock LatticeVectors

NumberOfAtoms 65
AtomicCoordinatesFormat Ang
%block AtomicCoordinatesAndAtomicSpecies
 -0.00184030 -0.00037341 -0.00037341 1 #  1: Mg
  2.10482039  0.00003307  0.00003307 2 #  2: O
 -0.00183980  2.10537353  2.10537353 1 #  3: Mg
  2.10483143  2.10495196  2.10495197 2 #  4: O
  2.08737047 -0.02732087  2.13232031 1 #  5: Mg
  0.00111625  0.00049170  2.10450868 2 #  6: O
  2.08737047  2.13232032 -0.02732089 1 #  7: Mg
  0.00111624  2.10450868  0.00049170 2 #  8: O
 -0.00036290 -0.00015615  4.21034947 1 #  9: Mg
  2.10528783  0.00047109  4.20923816 2 # 10: O
 -0.00036624  2.10515613  6.31464640 1 # 11: Mg
  2.10528764  2.10452882  6.31576598 2 # 12: O
  2.10486783 -0.00025488  6.31343252 1 # 13: Mg
  0.00062345  0.00017093  6.31553594 2 # 14: O
  2.10486744  2.10525423  4.21157485 1 # 15: Mg
  0.00062344  2.10482930  4.20946515 2 # 16: O
 -0.00036289  4.21034947 -0.00015614 1 # 17: Mg
  2.10528782  4.20923816  0.00047109 2 # 18: O
 -0.00036623  6.31464640  2.10515612 1 # 19: Mg
  2.10528763  6.31576598  2.10452882 2 # 20: O
  2.10486744  4.21157485  2.10525423 1 # 21: Mg
  0.00062345  4.20946515  2.10482931 2 # 22: O
  2.10486783  6.31343253 -0.00025487 1 # 23: Mg
  0.00062345  6.31553592  0.00017092 2 # 24: O
 -0.00020950  4.21017054  4.21017055 1 # 25: Mg
  2.10509866  4.20942082  4.20942082 2 # 26: O
 -0.00021061  6.31482699  6.31482699 1 # 27: Mg
  2.10509882  6.31557995  6.31557996 2 # 28: O
  2.10488864  4.21033413  6.31466489 1 # 29: Mg
  0.00023018  4.20980795  6.31519245 2 # 30: O
  2.10488865  6.31466488  4.21033412 1 # 31: Mg
  0.00023018  6.31519245  4.20980794 2 # 32: O
  4.21903067 -0.00687548 -0.00687548 1 # 33: Mg
  6.31448078  0.00040281  0.00040281 2 # 34: O
  4.21901658  2.11186703  2.11186703 1 # 35: Mg
  6.31448077  2.10459725  2.10459724 2 # 36: O
  6.31601417 -0.00007942  2.10507930 1 # 37: Mg
  4.20566491  0.00301539  2.10198333 2 # 38: O
  6.31601416  2.10507930 -0.00007941 1 # 39: Mg
  4.20566491  2.10198333  0.00301538 2 # 40: O
  4.21026037 -0.00012823  4.21121252 1 # 41: Mg
  6.31457705  0.00012745  4.20948807 2 # 42: O
  4.21026090  2.10512896  6.31379130 1 # 43: Mg
  6.31457731  2.10487250  6.31551222 2 # 44: O
  6.31514594 -0.00015676  6.31484177 1 # 45: Mg
  4.20941122  0.00037646  6.31572110 2 # 46: O
  6.31514473  2.10515720  4.21015722 1 # 47: Mg
  4.20941149  2.10462343  4.20927954 2 # 48: O
  4.21026036  4.21121252 -0.00012823 1 # 49: Mg
  6.31457705  4.20948806  0.00012744 2 # 50: O
  4.21026090  6.31379130  2.10512895 1 # 51: Mg
  6.31457730  6.31551222  2.10487250 2 # 52: O
  6.31514471  4.21015723  2.10515720 1 # 53: Mg
  4.20941149  4.20927953  2.10462343 2 # 54: O
  6.31514594  6.31484177 -0.00015676 1 # 55: Mg
  4.20941120  6.31572111  0.00037647 2 # 56: O
  4.21020166  4.21019013  4.21019011 1 # 57: Mg
  6.31489418  4.20985150  4.20985150 2 # 58: O
  4.21020171  6.31480655  6.31480655 1 # 59: Mg
  6.31489413  6.31514874  6.31514873 2 # 60: O
  6.31512786  4.21016440  6.31483450 1 # 61: Mg
  4.20979311  4.20952944  6.31547108 2 # 62: O
  6.31512786  6.31483451  4.21016441 1 # 63: Mg
  4.20979312  6.31547107  4.20952944 2 # 64: O
  2.80543760  1.05227080  1.05227079 3 # 65: Li
%endblock AtomicCoordinatesAndAtomicSpecies

NumberOfSpecies 3
%block ChemicalSpeciesLabel
 1 12 Mg
 2 8 O
 3 3 Li
%endblock ChemicalSpeciesLabel
