ADDGRID = True
ALGO = Fast
BMIX = 1
EDIFF = 1e-05
EDIFFG = -0.02
EDIFF_PER_ATOM = 1e-05
ENAUG = 1360
GGA = Ps
IBRION = 0
ISIF = 2
ISMEAR = 0
ISPIN = 1
ISYM = 0
KBLOCK = 100
LAECHG = True
LASPH = True
LCHARG = False
LDAU = False
LELF = False
LMIXTAU = True
LORBIT = 11
LPLANE = False
LREAL = Auto
LSCALU = False
LVTOT = True
LWAVE = True
MAXMIX = 20
MDALGO = 2
NBLOCK = 1
NELM = 500
NELMIN = 4
NSIM = 4
NSW = 3
POTIM = 2
PREC = Normal
SIGMA = 0.2
SMASS = 0
TEBEG = 300
TEEND = 300
