Si7
   1.00000000000000
     5.4378483500000003    0.0000000000000000    0.0000000000000000
     0.0000000000000000    5.4378483500000003    0.0000000000000000
     0.0000000000000000    0.0000000000000000    5.4378483500000003
   Si
     7
Direct
  0.2419472180000000  0.7580527820000000  0.2419472180000000
  0.0000000000000000  0.0000000000000000  0.5000000000000000
  0.2419472180000000  0.2419472180000000  0.7580527820000000
  0.0000000000000000  0.5000000000000000  0.0000000000000000
  0.7580527820000000  0.7580527820000000  0.7580527820000000
  0.5000000000000000  0.0000000000000000  0.0000000000000000
  0.7580527820000000  0.2419472180000000  0.2419472180000000

  0.00000000E+00  0.00000000E+00  0.00000000E+00
  0.00000000E+00  0.00000000E+00  0.00000000E+00
  0.00000000E+00  0.00000000E+00  0.00000000E+00
  0.00000000E+00  0.00000000E+00  0.00000000E+00
  0.00000000E+00  0.00000000E+00  0.00000000E+00
  0.00000000E+00  0.00000000E+00  0.00000000E+00
  0.00000000E+00  0.00000000E+00  0.00000000E+00
