Na1 Cl1
1.0
   3.4220150000000000    0.0000000000000000    1.9757020000000001
   1.1406710000000000    3.2263060000000001    1.9757020000000001
   0.0000000000000000    0.0000000000000000    3.9514019999999999
Na Cl
1 1
direct
   0.0000000000000000    0.0000000000000000    0.0000000000000000 Na
   0.5000000000000000    0.5000000000000000    0.5000000000000000 Cl
