pymatgen with grid density = 100 / number of atoms
0
Gamma
2 2 2
