65
Lattice="8.42 0.0 0.0 0.0 8.42 0.0 0.0 0.0 8.42" Properties=species:S:1:pos:R:3 pbc="T T T"
Mg      -0.00060710      -0.00009012      -0.00009012
O        2.09231949      -0.01988765      -0.01988765
Mg      -0.00057315       2.10509126       2.10509126
O        2.09284634       2.12371492       2.12371492
Mg       2.09258486      -0.01966224       2.12422521
O       -0.00059051      -0.00008511       2.10509632
Mg       2.09258486       2.12422521      -0.01966224
O       -0.00059051       2.10509632      -0.00008511
Mg      -0.00020291      -0.00004161       4.21020644
O        2.10484886      -0.00022251       4.21113466
Mg      -0.00003076       2.10500989       6.31505850
O        2.10499018       2.10501849       6.31511935
Mg       2.10499000      -0.00001662       6.31512117
O       -0.00003123      -0.00000879       6.31505928
Mg       2.10485179       2.10522338       4.21111041
O       -0.00019891       2.10504549       4.21020183
Mg      -0.00020291       4.21020644      -0.00004161
O        2.10484886       4.21113466      -0.00022251
Mg      -0.00003076       6.31505850       2.10500989
O        2.10499018       6.31511935       2.10501849
Mg       2.10485179       4.21111041       2.10522338
O       -0.00019891       4.21020183       2.10504549
Mg       2.10499000       6.31512117      -0.00001662
O       -0.00003123       6.31505928      -0.00000879
Mg      -0.00007933       4.21008142       4.21008142
O        2.10497250       4.21022696       4.21022696
Mg      -0.00000659       6.31501256       6.31501256
O        2.10499847       6.31501757       6.31501757
Mg       2.10499541       4.21003119       6.31505634
O       -0.00001742       4.21001869       6.31503326
Mg       2.10499541       6.31505634       4.21003119
O       -0.00001742       6.31503326       4.21001869
Mg       4.21206194      -0.00176117      -0.00176117
O        6.31504133      -0.00000016      -0.00000016
Mg       4.21189160       2.10662326       2.10662326
O        6.31502994       2.10500104       2.10500104
Mg       6.31503574       0.00000137       2.10500231
O        4.21197768      -0.00171399       2.10669377
Mg       6.31503574       2.10500231       0.00000137
O        4.21197768       2.10669377      -0.00171399
Mg       4.21014962      -0.00009785       4.21037274
O        6.31503481      -0.00000655       4.21003154
Mg       4.21001879       2.10501164       6.31506912
O        6.31501169       2.10500315       6.31501691
Mg       6.31501196      -0.00000261       6.31501726
O        4.21001926      -0.00001026       6.31507038
Mg       6.31503312       2.10500806       4.21003015
O        4.21014452       2.10509959       4.21036207
Mg       4.21014962       4.21037274      -0.00009785
O        6.31503481       4.21003154      -0.00000655
Mg       4.21001879       6.31506912       2.10501164
O        6.31501169       6.31501691       2.10500315
Mg       6.31503312       4.21003015       2.10500806
O        4.21014452       4.21036207       2.10509959
Mg       6.31501196       6.31501726      -0.00000261
O        4.21001926       6.31507038      -0.00001026
Mg       4.21004972       4.21010092       4.21010092
O        6.31502015       4.21001706       4.21001706
Mg       4.21000403       6.31501260       6.31501260
O        6.31500384       6.31500518       6.31500518
Mg       6.31500782       4.21000631       6.31501095
O        4.21001068       4.21002002       6.31503565
Mg       6.31500782       6.31501095       4.21000631
O        4.21001068       6.31503565       4.21002002
Li       2.81159672       1.04956963       1.04956963
