65
Lattice="8.42 0.0 0.0 0.0 8.42 0.0 0.0 0.0 8.42" Properties=species:S:1:pos:R:3 pbc="T T T"
Mg      -0.00107214      -0.00023767      -0.00023767
O        2.09018572      -0.04776005      -0.04776005
Mg      -0.00099614       2.10523098       2.10523098
O        2.09081818       2.14955817       2.14955817
Mg       2.09052162      -0.04709610       2.15092477
O       -0.00103463      -0.00022481       2.10524504
Mg       2.09052162       2.15092477      -0.04709610
O       -0.00103463       2.10524504      -0.00022481
Mg      -0.00038147      -0.00007690       4.21041407
O        2.10487185      -0.00037644       4.21235892
Mg      -0.00005517       2.10501805       6.31511204
O        2.10499234       2.10503280       6.31522600
Mg       2.10499219      -0.00002933       6.31522968
O       -0.00005613      -0.00001591       6.31511376
Mg       2.10487400       2.10537942       4.21230477
O       -0.00037283       2.10508443       4.21040354
Mg      -0.00038147       4.21041407      -0.00007690
O        2.10487185       4.21235892      -0.00037644
Mg      -0.00005517       6.31511204       2.10501805
O        2.10499234       6.31522600       2.10503280
Mg       2.10487400       4.21230477       2.10537942
O       -0.00037283       4.21040354       2.10508443
Mg       2.10499219       6.31522968      -0.00002933
O       -0.00005613       6.31511376      -0.00001591
Mg      -0.00015344       4.21016362       4.21016362
O        2.10497826       4.21047330       4.21047330
Mg      -0.00001185       6.31502392       6.31502392
O        2.10499888       6.31503339       6.31503339
Mg       2.10499653       4.21005928       6.31510919
O       -0.00003188       4.21003563       6.31506450
Mg       2.10499653       6.31510919       4.21005928
O       -0.00003188       6.31506450       4.21003563
Mg       4.21174723      -0.00124122      -0.00124122
O        6.31499769       0.00001253       0.00001253
Mg       4.21157230       2.10614328       2.10614328
O        6.31498513       2.10498910       2.10498910
Mg       6.31499157       0.00001410       2.10499025
O        4.21166113      -0.00120191       2.10619932
Mg       6.31499157       2.10499025       0.00001410
O        4.21166113       2.10619932      -0.00120191
Mg       4.21029315      -0.00011274       4.21048716
O        6.31504134      -0.00000443       4.21002724
Mg       4.21004195       2.10501792       6.31511105
O        6.31502004       2.10500413       6.31502274
Mg       6.31502046      -0.00000335       6.31502323
O        4.21004291      -0.00001563       6.31511313
Mg       6.31503905       2.10500654       4.21002566
O        4.21028326       2.10511715       4.21047226
Mg       4.21029315       4.21048716      -0.00011274
O        6.31504134       4.21002724      -0.00000443
Mg       4.21004195       6.31511105       2.10501792
O        6.31502004       6.31502274       2.10500413
Mg       6.31503905       4.21002566       2.10500654
O        4.21028326       4.21047226       2.10511715
Mg       6.31502046       6.31502323      -0.00000335
O        4.21004291       6.31511313      -0.00001563
Mg       4.21011576       4.21016204       4.21016204
O        6.31503186       4.21002010       4.21002010
Mg       4.21000932       6.31502239       6.31502239
O        6.31500756       6.31500836       6.31500836
Mg       6.31501454       4.21000922       6.31501624
O        4.21002472       4.21003395       6.31506155
Mg       6.31501454       6.31501624       4.21000922
O        4.21002472       6.31506155       4.21003395
Li       2.46081208       1.04818654       1.04818654
