65
Lattice="8.42 0.0 0.0 0.0 8.42 0.0 0.0 0.0 8.42" Properties=species:S:1:pos:R:3 pbc="T T T"
Mg      -0.00210403      -0.00176020      -0.00176020
O        2.11776940      -0.01992762      -0.01992762
Mg      -0.00197199       2.10664388       2.10664388
O        2.11711997       2.12372660       2.12372660
Mg       2.11745980      -0.01971869       2.12423136
O       -0.00203605      -0.00171068       2.10670907
Mg       2.11745980       2.12423136      -0.01971869
O       -0.00203605       2.10670907      -0.00171068
Mg      -0.00015236      -0.00009800       4.21037604
O        2.10515262      -0.00022311       4.21113544
Mg      -0.00001855       2.10501172       6.31506959
O        2.10501024       2.10501849       6.31511947
Mg       2.10501038      -0.00001666       6.31512128
O       -0.00001902      -0.00001040       6.31507076
Mg       2.10514905       2.10522336       4.21111137
O       -0.00014846       2.10510091       4.21036620
Mg      -0.00015236       4.21037604      -0.00009800
O        2.10515262       4.21113544      -0.00022311
Mg      -0.00001855       6.31506959       2.10501172
O        2.10501024       6.31511947       2.10501849
Mg       2.10514905       4.21111137       2.10522336
O       -0.00014846       4.21036620       2.10510091
Mg       2.10501038       6.31512128      -0.00001666
O       -0.00001902       6.31507076      -0.00001040
Mg      -0.00005030       4.21010207       4.21010207
O        2.10502805       4.21022717       4.21022717
Mg      -0.00000393       6.31501267       6.31501267
O        2.10500164       6.31501759       6.31501759
Mg       2.10500485       4.21003122       6.31505640
O       -0.00001051       4.21002020       6.31503589
Mg       2.10500485       6.31505640       4.21003122
O       -0.00001051       6.31503589       4.21002020
Mg       4.21059693      -0.00009159      -0.00009159
O        6.31504005      -0.00000175      -0.00000175
Mg       4.21055807       2.10508978       2.10508978
O        6.31503674       2.10500278       2.10500278
Mg       6.31503846      -0.00000134       2.10500300
O        4.21057829      -0.00008712       2.10509519
Mg       6.31503846       2.10500300      -0.00000134
O        4.21057829       2.10509519      -0.00008712
Mg       4.21019971      -0.00004207       4.21020536
O        6.31503809      -0.00000461       4.21001890
Mg       4.21003073       2.10500983       6.31505831
O        6.31501594       2.10500290       6.31501539
Mg       6.31501608      -0.00000255       6.31501554
O        4.21003122      -0.00000874       6.31505913
Mg       6.31503732       2.10500554       4.21001847
O        4.21019499       2.10504497       4.21020043
Mg       4.21019971       4.21020536      -0.00004207
O        6.31503809       4.21001890      -0.00000461
Mg       4.21003073       6.31505831       2.10500983
O        6.31501594       6.31501539       2.10500290
Mg       6.31503732       4.21001847       2.10500554
O        4.21019499       4.21020043       2.10504497
Mg       6.31501608       6.31501554      -0.00000255
O        4.21003122       6.31505913      -0.00000874
Mg       4.21007825       4.21008086       4.21008086
O        6.31502570       4.21001361       4.21001361
Mg       4.21000667       6.31501252       6.31501252
O        6.31500565       6.31500563       6.31500563
Mg       6.31501110       4.21000628       6.31501087
O        4.21001749       4.21001858       6.31503314
Mg       6.31501110       6.31501087       4.21000628
O        4.21001749       6.31503314       4.21001858
Li       1.39839218       1.04963940       1.04963940
