ALGO = Fast
EDIFF = 1e-05
ENAUG = 1360.0
ENCUT = 700.0
GGA = Ps
ISMEAR = -5
ISPIN = 2
KSPACING = 0.22
LAECHG = False
LASPH = True
LCHARG = True
LELF = False
LMIXTAU = True
LORBIT = 11
LREAL = False
LVTOT = True
LWAVE = False
MAGMOM = 7*0.0
NELECT = 28.0
NELM = 200
NELMIN = 6
NSW = 0
PREC = Accurate
SIGMA = 0.2
