pymatgen with grid density = 61 / number of atoms
0
Gamma
3 3 3
