ALGO = Normal
EDIFF = 1e-05
EDIFFG = -0.02
ENAUG = 1360.0
ENCUT = 680.0
IBRION = -1
ISIF = 3
ISMEAR = -5
ISPIN = 1
LAECHG = True
LASPH = True
LCHARG = True
LELF = True
LMIXTAU = True
LORBIT = 11
LREAL = Auto
LVTOT = True
LWAVE = False
MAGMOM = 2*0.6
NCORE = 4
NELM = 200
NSW = 1
PREC = Accurate
SIGMA = 0.05
