ALGO = Fast
EDIFF = 1e-07
EDIFFG = -0.001
ENAUG = 1360.0
ENCUT = 700
GGA = Ps
IBRION = 2
ISIF = 3
ISMEAR = -5
ISPIN = 2
KSPACING = 0.282277178618092
LAECHG = False
LASPH = True
LCHARG = False
LELF = False
LMIXTAU = True
LORBIT = 11
LREAL = False
LVTOT = True
LWAVE = False
MAGMOM = 2*0.0
NELM = 200
NSW = 99
PREC = Accurate
SIGMA = 0.05
