H1 C4
1.0
   1.2338620000000000   -2.1371120000000001    0.0000000000000000
   1.2338620000000000    2.1371120000000001    0.0000000000000000
   0.0000000000000000    0.0000000000000000    8.6850380000000005
H C
1 4
direct
  -0.0000000000000000    0.5000000000000000   -0.0000000000000000 H
  -0.0963048435554477   -0.0481524217777239    0.6974110642484505 C
   0.0963048435554477    0.0481524217777239    0.3025889357515497 C
   0.2373351124142039    0.6186680562070971    0.6984529814857299 C
   0.7626648875857960    0.3813319437929029    0.3015470185142700 C
