H1 C4
1.0
   1.2338620000000000   -2.1371120000000001    0.0000000000000000
   1.2338620000000000    2.1371120000000001    0.0000000000000000
   0.0000000000000000    0.0000000000000000    8.6850380000000005
H C
1 4
direct
   0.0000000000000000    0.5000000000000000    0.0000000000000000 H+
   0.0000000000000000    0.0000000000000000    0.7500000000000000 C0+
   0.0000000000000000    0.0000000000000000    0.2500000000000000 C0+
   0.3333330000000000    0.6666670000000000    0.7500000000000000 C0+
   0.6666670000000000    0.3333330000000000    0.2500000000000000 C0+
