ALGO = Normal
EDIFF = 1e-05
EDIFFG = -0.02
ENAUG = 1360
ENCUT = 680
IBRION = 8
ISIF = 3
ISMEAR = -5
ISPIN = 2
KSPACING = 0.5
LAECHG = True
LASPH = True
LCHARG = True
LELF = True
LEPSILON = True
LMIXTAU = True
LORBIT = 11
LPEAD = True
LREAL = Auto
LVTOT = True
LWAVE = False
MAGMOM = 2*0.6
NELM = 200
NSW = 1
PREC = Accurate
SIGMA = 0.05
