LatticeConstant 1.0 Ang
%block LatticeVectors
 8.42000000 0.00000000 0.00000000
 0.00000000 8.42000000 0.00000000
 0.00000000 0.00000000 8.42000000
%endblock LatticeVectors

NumberOfAtoms 65
AtomicCoordinatesFormat Ang
%block AtomicCoordinatesAndAtomicSpecies
 -0.01381885 -0.01381884 -0.01381885 1 #  1: Mg
  2.10213493  0.00286507  0.00286507 2 #  2: O
 -0.01381887  2.11881887  2.11881887 1 #  3: Mg
  2.10213493  2.10213493  2.10213493 2 #  4: O
  2.11881886 -0.01381887  2.11881886 1 #  5: Mg
  0.00286507  0.00286507  2.10213493 2 #  6: O
  2.11881887  2.11881888 -0.01381887 1 #  7: Mg
  0.00286507  2.10213493  0.00286507 2 #  8: O
 -0.00016154 -0.00016155  4.21143385 1 #  9: Mg
  2.10456526  0.00043474  4.20923831 2 # 10: O
 -0.00016155  2.10516155  6.31356616 1 # 11: Mg
  2.10456526  2.10456525  6.31576170 2 # 12: O
  2.10516156 -0.00016156  6.31356616 1 # 13: Mg
  0.00043474  0.00043475  6.31576170 2 # 14: O
  2.10516157  2.10516156  4.21143385 1 # 15: Mg
  0.00043475  2.10456526  4.20923830 2 # 16: O
 -0.00016156  4.21143384 -0.00016156 1 # 17: Mg
  2.10456526  4.20923831  0.00043474 2 # 18: O
 -0.00016155  6.31356616  2.10516156 1 # 19: Mg
  2.10456525  6.31576169  2.10456525 2 # 20: O
  2.10516154  4.21143384  2.10516156 1 # 21: Mg
  0.00043474  4.20923830  2.10456526 2 # 22: O
  2.10516154  6.31356614 -0.00016155 1 # 23: Mg
  0.00043475  6.31576169  0.00043475 2 # 24: O
 -0.00015962  4.21022763  4.21022763 1 # 25: Mg
  2.10485767  4.20944852  4.20944852 2 # 26: O
 -0.00015961  6.31477238  6.31477237 1 # 27: Mg
  2.10485767  6.31555148  6.31555149 2 # 28: O
  2.10515963  4.21022762  6.31477237 1 # 29: Mg
  0.00014233  4.20944852  6.31555148 2 # 30: O
  2.10515962  6.31477237  4.21022763 1 # 31: Mg
  0.00014233  6.31555147  4.20944852 2 # 32: O
  4.21143385 -0.00016155 -0.00016155 1 # 33: Mg
  6.31576169  0.00043474  0.00043474 2 # 34: O
  4.21143384  2.10516155  2.10516155 1 # 35: Mg
  6.31576169  2.10456526  2.10456525 2 # 36: O
  6.31356614 -0.00016156  2.10516156 1 # 37: Mg
  4.20923831  0.00043475  2.10456526 2 # 38: O
  6.31356615  2.10516155 -0.00016155 1 # 39: Mg
  4.20923831  2.10456525  0.00043475 2 # 40: O
  4.21022763 -0.00015962  4.21022763 1 # 41: Mg
  6.31555148  0.00014233  4.20944852 2 # 42: O
  4.21022762  2.10515960  6.31477236 1 # 43: Mg
  6.31555149  2.10485767  6.31555148 2 # 44: O
  6.31477238 -0.00015961  6.31477237 1 # 45: Mg
  4.20944853  0.00014232  6.31555148 2 # 46: O
  6.31477238  2.10515962  4.21022763 1 # 47: Mg
  4.20944852  2.10485767  4.20944851 2 # 48: O
  4.21022763  4.21022763 -0.00015962 1 # 49: Mg
  6.31555147  4.20944852  0.00014233 2 # 50: O
  4.21022764  6.31477237  2.10515961 1 # 51: Mg
  6.31555148  6.31555148  2.10485767 2 # 52: O
  6.31477238  4.21022763  2.10515962 1 # 53: Mg
  4.20944852  4.20944852  2.10485767 2 # 54: O
  6.31477237  6.31477237 -0.00015961 1 # 55: Mg
  4.20944853  6.31555148  0.00014233 2 # 56: O
  4.21017196  4.21017196  4.21017196 1 # 57: Mg
  6.31516647  4.20983353  4.20983353 2 # 58: O
  4.21017196  6.31482804  6.31482804 1 # 59: Mg
  6.31516647  6.31516647  6.31516648 2 # 60: O
  6.31482805  4.21017195  6.31482803 1 # 61: Mg
  4.20983353  4.20983353  6.31516647 2 # 62: O
  6.31482803  6.31482804  4.21017197 1 # 63: Mg
  4.20983353  6.31516647  4.20983353 2 # 64: O
  1.05250000  1.05250000  1.05250000 3 # 65: Li
%endblock AtomicCoordinatesAndAtomicSpecies

NumberOfSpecies 3
%block ChemicalSpeciesLabel
 1 12 Mg
 2 8 O
 3 3 Li
%endblock ChemicalSpeciesLabel
