Si8
1.0
   5.4687279953829524   -0.0000000000000002    0.0000000000000002
  -0.0000000000000002    5.4687279953829524    0.0000000000000005
  -0.0000000000000003    0.0000000000000002    5.4687279953829524
Si
8
direct
   0.7518285787862264    0.7500000000000001    0.7500000000000001 Si
   0.7500000000000000    0.2500000000000000    0.2500000000000000 Si
   0.2500000000000000    0.7500000000000001    0.2500000000000000 Si
   0.2500000000000000    0.2500000000000001    0.7499999999999999 Si
   0.4999999999999999    0.4999999999999999    0.5000000000000000 Si
   0.4999999999999999   -0.0000000000000000   -0.0000000000000000 Si
   0.0000000000000000    0.4999999999999999   -0.0000000000000000 Si
   0.0000000000000000   -0.0000000000000000    0.5000000000000000 Si
