ALGO = Fast
EDIFF = 1e-05
EDIFFG = -0.05
ENAUG = 1360
ENCUT = 400
IBRION = 2
ISIF = 2
ISMEAR = 0
ISPIN = 2
KSPACING = 1
LAECHG = False
LASPH = True
LCHARG = False
LELF = False
LMIXTAU = True
LORBIT = 11
LREAL = False
LVHAR = True
LVTOT = True
LWAVE = False
MAGMOM = 7*0.6
NCORE = 4
NELECT = 28.0
NELM = 200
NELMIN = 6
NSW = 99
PREC = Normal
SIGMA = 0.05
