pymatgen with grid density = 7000 / number of atoms
0
Gamma
9 9 9
