Si2
1.0
-0.000000 2.734364 2.734364
2.720658 0.000000 2.734364
2.720658 2.734364 0.000000
Si
2
direct
0.750000 0.750000 0.750000 Si
0.500000 0.500000 0.500000 Si
